3268
Lattice=" 598.649984 0.0 0.0 299.32499211 518.4460943 0.0 0.0 0.0 0.0 35.00000 # typea " 
C1   1.42006	0.0248447	-3.3
C1   2.84013	0.0496893	-3.3
C1   3.52864	1.29192	-3.3
C1   4.94871	1.31677	-3.3
C1   5.63723	2.559	-3.3
C1   7.05729	2.58385	-3.3
C1   7.74581	3.82608	-3.3
C1   9.16587	3.85093	-3.3
C1   9.85439	5.09316	-3.3
C1   11.2745	5.118	-3.3
C1   11.963	6.36024	-3.3
C1   13.383	6.38508	-3.3
C1   14.0715	7.62732	-3.3
C1   15.4916	7.65216	-3.3
C1   16.1801	8.8944	-3.3
C1   17.6002	8.91924	-3.3
C1   18.2887	10.1615	-3.3
C1   19.7088	10.1863	-3.3
C1   20.3973	11.4286	-3.3
C1   2.7971	2.50931	-3.3
C1   3.48561	3.75155	-3.3
C1   4.90568	3.77639	-3.3
C1   5.59419	5.01863	-3.3
C1   7.01426	5.04347	-3.3
C1   7.70277	6.2857	-3.3
C1   9.12284	6.31055	-3.3
C1   9.81135	7.55278	-3.3
C1   11.2314	7.57763	-3.3
C1   11.9199	8.81986	-3.3
C1   13.34	8.84471	-3.3
C1   14.0285	10.0869	-3.3
C1   15.4486	10.1118	-3.3
C1   16.1371	11.354	-3.3
C1   17.5572	11.3789	-3.3
C1   18.2457	12.6211	-3.3
C1   19.6657	12.6459	-3.3
C1   20.3543	13.8882	-3.3
C1   21.7743	13.913	-3.3
C1   22.4628	15.1553	-3.3
C1   4.86264	6.23602	-3.3
C1   5.55116	7.47825	-3.3
C1   6.97122	7.50309	-3.3
C1   7.65974	8.74533	-3.3
C1   9.07981	8.77017	-3.3
C1   9.76832	10.0124	-3.3
C1   11.1884	10.0373	-3.3
C1   11.8769	11.2795	-3.3
C1   13.297	11.3043	-3.3
C1   13.9855	12.5466	-3.3
C1   15.4055	12.5714	-3.3
C1   16.0941	13.8136	-3.3
C1   17.5141	13.8385	-3.3
C1   18.2026	15.0807	-3.3
C1   19.6227	15.1056	-3.3
C1   20.3112	16.3478	-3.3
C1   21.7313	16.3726	-3.3
C1   22.4198	17.6149	-3.3
C1   23.8399	17.6397	-3.3
C1   24.5284	18.882	-3.3
C1   6.92819	9.96272	-3.3
C1   7.61671	11.205	-3.3
C1   9.03677	11.2298	-3.3
C1   9.72529	12.472	-3.3
C1   11.1454	12.4969	-3.3
C1   11.8339	13.7391	-3.3
C1   13.2539	13.764	-3.3
C1   13.9424	15.0062	-3.3
C1   15.3625	15.031	-3.3
C1   16.051	16.2733	-3.3
C1   17.4711	16.2981	-3.3
C1   18.1596	17.5403	-3.3
C1   19.5797	17.5652	-3.3
C1   20.2682	18.8074	-3.3
C1   21.6883	18.8323	-3.3
C1   22.3768	20.0745	-3.3
C1   23.7968	20.0993	-3.3
C1   24.4854	21.3416	-3.3
C1   25.9054	21.3664	-3.3
C1   26.5939	22.6087	-3.3
C1   8.99374	13.6894	-3.3
C1   9.68226	14.9317	-3.3
C1   11.1023	14.9565	-3.3
C1   11.7908	16.1987	-3.3
C1   13.2109	16.2236	-3.3
C1   13.8994	17.4658	-3.3
C1   15.3195	17.4907	-3.3
C1   16.008	18.7329	-3.3
C1   17.4281	18.7577	-3.3
C1   18.1166	20	-3.3
C1   19.5366	20.0248	-3.3
C1   20.2252	21.267	-3.3
C1   21.6452	21.2919	-3.3
C1   22.3337	22.5341	-3.3
C1   23.7538	22.559	-3.3
C1   24.4423	23.8012	-3.3
C1   25.8624	23.8261	-3.3
C1   26.5509	25.0683	-3.3
C1   27.971	25.0931	-3.3
C1   28.6595	26.3354	-3.3
C1   11.0593	17.4161	-3.3
C1   11.7478	18.6584	-3.3
C1   13.1679	18.6832	-3.3
C1   13.8564	19.9254	-3.3
C1   15.2764	19.9503	-3.3
C1   15.965	21.1925	-3.3
C1   17.385	21.2174	-3.3
C1   18.0735	22.4596	-3.3
C1   19.4936	22.4844	-3.3
C1   20.1821	23.7267	-3.3
C1   21.6022	23.7515	-3.3
C1   22.2907	24.9938	-3.3
C1   23.7108	25.0186	-3.3
C1   24.3993	26.2608	-3.3
C1   25.8194	26.2857	-3.3
C1   26.5079	27.5279	-3.3
C1   27.9279	27.5528	-3.3
C1   28.6164	28.795	-3.3
C1   30.0365	28.8198	-3.3
C1   30.725	30.0621	-3.3
C1   13.1248	21.1428	-3.3
C1   13.8134	22.3851	-3.3
C1   15.2334	22.4099	-3.3
C1   15.9219	23.6521	-3.3
C1   17.342	23.677	-3.3
C1   18.0305	24.9192	-3.3
C1   19.4506	24.9441	-3.3
C1   20.1391	26.1863	-3.3
C1   21.5592	26.2111	-3.3
C1   22.2477	27.4534	-3.3
C1   23.6677	27.4782	-3.3
C1   24.3563	28.7205	-3.3
C1   25.7763	28.7453	-3.3
C1   26.4648	29.9875	-3.3
C1   27.8849	30.0124	-3.3
C1   15.1904	24.8695	-3.3
C1   15.8789	26.1118	-3.3
C1   17.299	26.1366	-3.3
C1   17.9875	27.3788	-3.3
C1   19.4075	27.4037	-3.3
C1   20.0961	28.6459	-3.3
C1   21.5161	28.6708	-3.3
C1   22.2046	29.913	-3.3
C1   23.6247	29.9378	-3.3
C1   17.2559	28.5962	-3.3
C1   17.9444	29.8385	-3.3
C1   19.3645	29.8633	-3.3
C1   14.2006	0.248447	-3.3
C1   9.94045	0.173913	-3.3
C1   11.3605	0.198757	-3.3
C1   12.049	1.44099	-3.3
C1   13.4691	1.46584	-3.3
C1   14.1576	2.70807	-3.3
C1   15.5777	2.73292	-3.3
C1   16.2662	3.97515	-3.3
C1   5.68026	0.0993787	-3.3
C1   7.10032	0.124223	-3.3
C1   7.78884	1.36646	-3.3
C1   9.2089	1.3913	-3.3
C1   9.89742	2.63354	-3.3
C1   11.3175	2.65838	-3.3
C1   12.006	3.90062	-3.3
C1   13.4261	3.92546	-3.3
C1   14.1146	5.16769	-3.3
C1   15.5346	5.19254	-3.3
C1   16.2232	6.43477	-3.3
C1   17.6432	6.45962	-3.3
C1   18.3317	7.70185	-3.3
C2   3.57168	1.1677	0.0
C2   4.99174	1.14286	0.0
C2   5.72329	2.36024	0.0
C2   7.14335	2.3354	0.0
C2   7.8749	3.55279	0.0
C2   9.29497	3.52794	0.0
C2   10.0265	4.74533	0.0
C2   11.4466	4.72049	0.0
C2   12.1781	5.93788	0.0
C2   13.5982	5.91303	0.0
C2   14.3297	7.13042	0.0
C2   15.7498	7.10558	0.0
C2   16.4814	8.32297	0.0
C2   17.9014	8.29812	0.0
C2   18.633	9.51551	0.0
C2   7.83187	1.09317	0.0
C2   9.25193	1.06832	0.0
C2   9.98348	2.28571	0.0
C2   11.4035	2.26087	0.0
C2   12.1351	3.47826	0.0
C2   13.5552	3.45341	0.0
C2   14.2867	4.6708	0.0
C2   15.7068	4.64596	0.0
C2   16.4383	5.86335	0.0
C2   12.0921	1.01863	0.0
C2   13.5121	0.993787	0.0
C2   14.2437	2.21118	0.0
C2   18.2887	30.4347	0.0
C2   16.0941	26.7826	0.0
C2   16.8256	28	0.0
C2   18.2457	27.9751	0.0
C2   18.9772	29.1925	0.0
C2   20.3973	29.1677	0.0
C2   21.1288	30.385	0.0
C2   22.5489	30.3602	0.0
C2   13.8994	23.1304	0.0
C2   14.631	24.3478	0.0
C2   16.051	24.3229	0.0
C2   16.7826	25.5403	0.0
C2   18.2026	25.5155	0.0
C2   18.9342	26.7329	0.0
C2   20.3543	26.708	0.0
C2   21.0858	27.9254	0.0
C2   22.5059	27.9006	0.0
C2   23.2374	29.118	0.0
C2   24.6575	29.0931	0.0
C2   25.389	30.3105	0.0
C2   26.8091	30.2857	0.0
C2   11.7048	19.4782	0.0
C2   12.4363	20.6956	0.0
C2   13.8564	20.6708	0.0
C2   14.5879	21.8882	0.0
C2   16.008	21.8633	0.0
C2   16.7395	23.0807	0.0
C2   18.1596	23.0559	0.0
C2   18.8912	24.2733	0.0
C2   20.3112	24.2484	0.0
C2   21.0428	25.4658	0.0
C2   22.4628	25.441	0.0
C2   23.1944	26.6583	0.0
C2   24.6144	26.6335	0.0
C2   25.346	27.8509	0.0
C2   26.7661	27.826	0.0
C2   27.4976	29.0434	0.0
C2   28.9177	29.0186	0.0
C2   29.6492	30.236	0.0
C2   31.0693	30.2111	0.0
C2   9.51013	15.8261	0.0
C2   10.2417	17.0435	0.0
C2   11.6617	17.0186	0.0
C2   12.3933	18.236	0.0
C2   13.8134	18.2112	0.0
C2   14.5449	19.4285	0.0
C2   15.965	19.4037	0.0
C2   16.6965	20.6211	0.0
C2   18.1166	20.5962	0.0
C2   18.8481	21.8136	0.0
C2   20.2682	21.7888	0.0
C2   20.9997	23.0062	0.0
C2   22.4198	22.9813	0.0
C2   23.1514	24.1987	0.0
C2   24.5714	24.1739	0.0
C2   25.303	25.3913	0.0
C2   26.723	25.3664	0.0
C2   27.4546	26.5838	0.0
C2   28.8746	26.559	0.0
C2   29.6062	27.7764	0.0
C2   7.31548	12.1739	0.0
C2   8.04703	13.3913	0.0
C2   9.4671	13.3664	0.0
C2   10.1986	14.5838	0.0
C2   11.6187	14.559	0.0
C2   12.3503	15.7764	0.0
C2   13.7703	15.7515	0.0
C2   14.5019	16.9689	0.0
C2   15.9219	16.9441	0.0
C2   16.6535	18.1615	0.0
C2   18.0735	18.1366	0.0
C2   18.8051	19.354	0.0
C2   20.2252	19.3292	0.0
C2   20.9567	20.5466	0.0
C2   22.3768	20.5217	0.0
C2   23.1083	21.7391	0.0
C2   24.5284	21.7143	0.0
C2   25.2599	22.9316	0.0
C2   26.68	22.9068	0.0
C2   27.4115	24.1242	0.0
C2   5.12084	8.52173	0.0
C2   5.85239	9.73912	0.0
C2   7.27245	9.71427	0.0
C2   8.004	10.9317	0.0
C2   9.42406	10.9068	0.0
C2   10.1556	12.1242	0.0
C2   11.5757	12.0994	0.0
C2   12.3072	13.3167	0.0
C2   13.7273	13.2919	0.0
C2   14.4588	14.5093	0.0
C2   15.8789	14.4845	0.0
C2   16.6104	15.7018	0.0
C2   18.0305	15.677	0.0
C2   18.7621	16.8944	0.0
C2   20.1821	16.8695	0.0
C2   20.9137	18.0869	0.0
C2   22.3337	18.0621	0.0
C2   23.0653	19.2795	0.0
C2   24.4854	19.2546	0.0
C2   25.2169	20.472	0.0
C2   2.92619	4.86956	0.0
C2   3.65774	6.08695	0.0
C2   5.07781	6.0621	0.0
C2   5.80935	7.27949	0.0
C2   7.22942	7.25465	0.0
C2   7.96097	8.47204	0.0
C2   9.38103	8.44719	0.0
C2   10.1126	9.66458	0.0
C2   11.5326	9.63974	0.0
C2   12.2642	10.8571	0.0
C2   13.6843	10.8323	0.0
C2   14.4158	12.0497	0.0
C2   15.8359	12.0248	0.0
C2   16.5674	13.2422	0.0
C2   17.9875	13.2174	0.0
C2   18.719	14.4348	0.0
C2   20.1391	14.4099	0.0
C2   20.8706	15.6273	0.0
C2   22.2907	15.6025	0.0
C2   23.0223	16.8199	0.0
C2   0.731548	1.21739	0.0
C2   1.4631	2.43478	0.0
C2   2.88316	2.40993	0.0
C2   3.61471	3.62732	0.0
C2   5.03477	3.60248	0.0
C2   5.76632	4.81987	0.0
C2   7.18639	4.79502	0.0
C2   7.91793	6.01241	0.0
C2   9.338	5.98757	0.0
C2   10.0695	7.20496	0.0
C2   11.4896	7.18011	0.0
C2   12.2212	8.3975	0.0
C2   13.6412	8.37266	0.0
C2   14.3728	9.59005	0.0
C2   15.7928	9.5652	0.0
C2   16.5244	10.7826	0.0
C2   17.9444	10.7577	0.0
C2   18.676	11.9751	0.0
C2   20.0961	11.9503	0.0
C2   20.8276	13.1677	0.0
C1   28.5734	31.2546	-3.3
C1   29.9935	31.2795	-3.3
C1   30.682	32.5217	-3.3
C1   32.1021	32.5465	-3.3
C1   32.7906	33.7888	-3.3
C1   24.3132	31.1801	-3.3
C1   25.7333	31.2049	-3.3
C1   26.4218	32.4472	-3.3
C1   27.8419	32.472	-3.3
C1   28.5304	33.7142	-3.3
C1   29.9504	33.7391	-3.3
C1   30.639	34.9813	-3.3
C1   32.059	35.0062	-3.3
C1   32.7475	36.2484	-3.3
C1   34.1676	36.2732	-3.3
C1   34.8561	37.5155	-3.3
C1   20.053	31.1055	-3.3
C1   21.4731	31.1304	-3.3
C1   22.1616	32.3726	-3.3
C1   23.5817	32.3975	-3.3
C1   24.2702	33.6397	-3.3
C1   25.6903	33.6645	-3.3
C1   26.3788	34.9068	-3.3
C1   27.7988	34.9316	-3.3
C1   28.4874	36.1739	-3.3
C1   29.9074	36.1987	-3.3
C1   30.5959	37.4409	-3.3
C1   32.016	37.4658	-3.3
C1   32.7045	38.708	-3.3
C1   34.1246	38.7329	-3.3
C1   34.8131	39.9751	-3.3
C1   36.2332	39.9999	-3.3
C1   36.9217	41.2422	-3.3
C1   19.3215	32.3229	-3.3
C1   20.01	33.5652	-3.3
C1   21.4301	33.59	-3.3
C1   22.1186	34.8322	-3.3
C1   23.5386	34.8571	-3.3
C1   24.2272	36.0993	-3.3
C1   25.6472	36.1242	-3.3
C1   26.3357	37.3664	-3.3
C1   27.7558	37.3912	-3.3
C1   28.4443	38.6335	-3.3
C1   29.8644	38.6583	-3.3
C1   30.5529	39.9006	-3.3
C1   31.973	39.9254	-3.3
C1   32.6615	41.1676	-3.3
C1   34.0815	41.1925	-3.3
C1   34.7701	42.4347	-3.3
C1   36.1901	42.4596	-3.3
C1   36.8786	43.7018	-3.3
C1   38.2987	43.7266	-3.3
C1   38.9872	44.9689	-3.3
C1   21.387	36.0496	-3.3
C1   22.0755	37.2919	-3.3
C1   23.4956	37.3167	-3.3
C1   24.1841	38.5589	-3.3
C1   25.6042	38.5838	-3.3
C1   26.2927	39.826	-3.3
C1   27.7128	39.8509	-3.3
C1   28.4013	41.0931	-3.3
C1   29.8214	41.1179	-3.3
C1   30.5099	42.3602	-3.3
C1   31.9299	42.385	-3.3
C1   32.6184	43.6273	-3.3
C1   34.0385	43.6521	-3.3
C1   34.727	44.8943	-3.3
C1   36.1471	44.9192	-3.3
C1   36.8356	46.1614	-3.3
C1   38.2557	46.1863	-3.3
C1   38.9442	47.4285	-3.3
C1   40.3643	47.4533	-3.3
C1   41.0528	48.6956	-3.3
C1   23.4526	39.7763	-3.3
C1   24.1411	41.0186	-3.3
C1   25.5612	41.0434	-3.3
C1   26.2497	42.2857	-3.3
C1   27.6697	42.3105	-3.3
C1   28.3583	43.5527	-3.3
C1   29.7783	43.5776	-3.3
C1   30.4668	44.8198	-3.3
C1   31.8869	44.8447	-3.3
C1   32.5754	46.0869	-3.3
C1   33.9955	46.1117	-3.3
C1   34.684	47.354	-3.3
C1   36.1041	47.3788	-3.3
C1   36.7926	48.621	-3.3
C1   38.2126	48.6459	-3.3
C1   38.9012	49.8881	-3.3
C1   40.3212	49.913	-3.3
C1   41.0097	51.1552	-3.3
C1   42.4298	51.18	-3.3
C1   43.1183	52.4223	-3.3
C1   25.5181	43.503	-3.3
C1   26.2066	44.7453	-3.3
C1   27.6267	44.7701	-3.3
C1   28.3152	46.0124	-3.3
C1   29.7353	46.0372	-3.3
C1   30.4238	47.2794	-3.3
C1   31.8439	47.3043	-3.3
C1   32.5324	48.5465	-3.3
C1   33.9524	48.5714	-3.3
C1   34.641	49.8136	-3.3
C1   36.061	49.8384	-3.3
C1   36.7495	51.0807	-3.3
C1   38.1696	51.1055	-3.3
C1   38.8581	52.3477	-3.3
C1   40.2782	52.3726	-3.3
C1   40.9667	53.6148	-3.3
C1   42.3868	53.6397	-3.3
C1   43.0753	54.8819	-3.3
C1   44.4953	54.9067	-3.3
C1   45.1839	56.149	-3.3
C1   27.5837	47.2297	-3.3
C1   28.2722	48.472	-3.3
C1   29.6923	48.4968	-3.3
C1   30.3808	49.7391	-3.3
C1   31.8008	49.7639	-3.3
C1   32.4894	51.0061	-3.3
C1   33.9094	51.031	-3.3
C1   34.5979	52.2732	-3.3
C1   36.018	52.2981	-3.3
C1   36.7065	53.5403	-3.3
C1   38.1266	53.5651	-3.3
C1   38.8151	54.8074	-3.3
C1   40.2352	54.8322	-3.3
C1   40.9237	56.0744	-3.3
C1   42.3437	56.0993	-3.3
C1   43.0323	57.3415	-3.3
C1   44.4523	57.3664	-3.3
C1   45.1408	58.6086	-3.3
C1   46.5609	58.6335	-3.3
C1   47.2494	59.8757	-3.3
C1   29.6492	50.9564	-3.3
C1   30.3377	52.1987	-3.3
C1   31.7578	52.2235	-3.3
C1   32.4463	53.4658	-3.3
C1   33.8664	53.4906	-3.3
C1   34.5549	54.7328	-3.3
C1   35.975	54.7577	-3.3
C1   36.6635	55.9999	-3.3
C1   38.0835	56.0248	-3.3
C1   38.7721	57.267	-3.3
C1   40.1921	57.2918	-3.3
C1   40.8806	58.5341	-3.3
C1   42.3007	58.5589	-3.3
C1   42.9892	59.8012	-3.3
C1   44.4093	59.826	-3.3
C1   31.7148	54.6831	-3.3
C1   32.4033	55.9254	-3.3
C1   33.8234	55.9502	-3.3
C1   34.5119	57.1925	-3.3
C1   35.9319	57.2173	-3.3
C1   36.6204	58.4595	-3.3
C1   38.0405	58.4844	-3.3
C1   38.729	59.7266	-3.3
C1   40.1491	59.7515	-3.3
C1   33.7803	58.4098	-3.3
C1   34.4688	59.6521	-3.3
C1   35.8889	59.6769	-3.3
C2   36.5774	60.8695	0.0
C2   37.9975	60.8446	0.0
C2   33.6512	55.9999	0.0
C2   34.3828	57.2173	0.0
C2   35.8028	57.1925	0.0
C2   36.5344	58.4098	0.0
C2   37.9544	58.385	0.0
C2   38.686	59.6024	0.0
C2   40.1061	59.5775	0.0
C2   40.8376	60.7949	0.0
C2   42.2577	60.7701	0.0
C2   31.4566	52.3477	0.0
C2   32.1881	53.5651	0.0
C2   33.6082	53.5403	0.0
C2   34.3397	54.7577	0.0
C2   35.7598	54.7328	0.0
C2   36.4914	55.9502	0.0
C2   37.9114	55.9254	0.0
C2   38.643	57.1428	0.0
C2   40.063	57.1179	0.0
C2   40.7946	58.3353	0.0
C2   42.2146	58.3105	0.0
C2   42.9462	59.5279	0.0
C2   44.3663	59.503	0.0
C2   45.0978	60.7204	0.0
C2   46.5179	60.6956	0.0
C2   29.2619	48.6956	0.0
C2   29.9935	49.913	0.0
C2   31.4135	49.8881	0.0
C2   32.1451	51.1055	0.0
C2   33.5652	51.0807	0.0
C2   34.2967	52.2981	0.0
C2   35.7168	52.2732	0.0
C2   36.4483	53.4906	0.0
C2   37.8684	53.4658	0.0
C2   38.5999	54.6831	0.0
C2   40.02	54.6583	0.0
C2   40.7515	55.8757	0.0
C2   42.1716	55.8508	0.0
C2   42.9032	57.0682	0.0
C2   44.3232	57.0434	0.0
C2   45.0548	58.2608	0.0
C2   46.4748	58.2359	0.0
C2   47.2064	59.4533	0.0
C2   27.0673	45.0434	0.0
C2   27.7988	46.2608	0.0
C2   29.2189	46.236	0.0
C2   29.9504	47.4533	0.0
C2   31.3705	47.4285	0.0
C2   32.1021	48.6459	0.0
C2   33.5221	48.621	0.0
C2   34.2537	49.8384	0.0
C2   35.6737	49.8136	0.0
C2   36.4053	51.031	0.0
C2   37.8254	51.0061	0.0
C2   38.5569	52.2235	0.0
C2   39.977	52.1987	0.0
C2   40.7085	53.4161	0.0
C2   42.1286	53.3912	0.0
C2   42.8601	54.6086	0.0
C2   44.2802	54.5838	0.0
C2   45.0117	55.8012	0.0
C2   24.8726	41.3912	0.0
C2   25.6042	42.6086	0.0
C2   27.0243	42.5838	0.0
C2   27.7558	43.8012	0.0
C2   29.1759	43.7763	0.0
C2   29.9074	44.9937	0.0
C2   31.3275	44.9689	0.0
C2   32.059	46.1863	0.0
C2   33.4791	46.1614	0.0
C2   34.2106	47.3788	0.0
C2   35.6307	47.354	0.0
C2   36.3623	48.5714	0.0
C2   37.7823	48.5465	0.0
C2   38.5139	49.7639	0.0
C2   39.9339	49.7391	0.0
C2   40.6655	50.9564	0.0
C2   42.0855	50.9316	0.0
C2   42.8171	52.149	0.0
C2   22.678	37.7391	0.0
C2   23.4095	38.9565	0.0
C2   24.8296	38.9316	0.0
C2   25.5612	40.149	0.0
C2   26.9812	40.1242	0.0
C2   27.7128	41.3416	0.0
C2   29.1328	41.3167	0.0
C2   29.8644	42.5341	0.0
C2   31.2844	42.5093	0.0
C2   32.016	43.7266	0.0
C2   33.4361	43.7018	0.0
C2   34.1676	44.9192	0.0
C2   35.5877	44.8943	0.0
C2   36.3192	46.1117	0.0
C2   37.7393	46.0869	0.0
C2   38.4708	47.3043	0.0
C2   39.8909	47.2794	0.0
C2   40.6224	48.4968	0.0
C2   42.0425	48.472	0.0
C2   20.4834	34.0869	0.0
C2   21.2149	35.3043	0.0
C2   22.635	35.2794	0.0
C2   23.3665	36.4968	0.0
C2   24.7866	36.472	0.0
C2   25.5181	37.6894	0.0
C2   26.9382	37.6645	0.0
C2   27.6697	38.8819	0.0
C2   29.0898	38.8571	0.0
C2   29.8214	40.0745	0.0
C2   31.2414	40.0496	0.0
C2   31.973	41.267	0.0
C2   33.393	41.2422	0.0
C2   34.1246	42.4596	0.0
C2   35.5446	42.4347	0.0
C2   36.2762	43.6521	0.0
C2   37.6963	43.6273	0.0
C2   38.4278	44.8447	0.0
C2   39.8479	44.8198	0.0
C2   40.5794	46.0372	0.0
C2   19.0203	31.6521	0.0
C2   20.4403	31.6273	0.0
C2   21.1719	32.8447	0.0
C2   22.5919	32.8198	0.0
C2   23.3235	34.0372	0.0
C2   24.7435	34.0124	0.0
C2   25.4751	35.2298	0.0
C2   26.8952	35.2049	0.0
C2   27.6267	36.4223	0.0
C2   29.0468	36.3975	0.0
C2   29.7783	37.6148	0.0
C2   31.1984	37.59	0.0
C2   31.9299	38.8074	0.0
C2   33.35	38.7825	0.0
C2   34.0815	39.9999	0.0
C2   35.5016	39.9751	0.0
C2   36.2332	41.1925	0.0
C2   37.6532	41.1676	0.0
C2   38.3848	42.385	0.0
C2   23.2804	31.5776	0.0
C2   24.7005	31.5527	0.0
C2   25.4321	32.7701	0.0
C2   26.8521	32.7453	0.0
C2   27.5837	33.9627	0.0
C2   29.0037	33.9378	0.0
C2   29.7353	35.1552	0.0
C2   31.1554	35.1304	0.0
C2   31.8869	36.3478	0.0
C2   33.307	36.3229	0.0
C2   34.0385	37.5403	0.0
C2   35.4586	37.5155	0.0
C2   36.1901	38.7329	0.0
C2   27.5406	31.5031	0.0
C2   28.9607	31.4782	0.0
C2   29.6923	32.6956	0.0
C2   31.1123	32.6708	0.0
C2   31.8439	33.8881	0.0
C2   33.2639	33.8633	0.0
C2   33.9955	35.0807	0.0
C2   31.8008	31.4285	0.0
C2   35.8459	59.6521	0.0
C1   21.8174	11.4534	-3.3
C1   22.5059	12.6956	-3.3
C1   23.9259	12.7205	-3.3
C1   24.6144	13.9627	-3.3
C1   26.0345	13.9876	-3.3
C1   26.723	15.2298	-3.3
C1   28.1431	15.2546	-3.3
C1   28.8316	16.4969	-3.3
C1   30.2517	16.5217	-3.3
C1   30.9402	17.7639	-3.3
C1   32.3603	17.7888	-3.3
C1   33.0488	19.031	-3.3
C1   34.4688	19.0559	-3.3
C1   35.1574	20.2981	-3.3
C1   36.5774	20.323	-3.3
C1   37.2659	21.5652	-3.3
C1   38.686	21.59	-3.3
C1   39.3745	22.8323	-3.3
C1   40.7946	22.8571	-3.3
C1   41.4831	24.0993	-3.3
C1   23.8829	15.1801	-3.3
C1   24.5714	16.4223	-3.3
C1   25.9915	16.4472	-3.3
C1   26.68	17.6894	-3.3
C1   28.1001	17.7143	-3.3
C1   28.7886	18.9565	-3.3
C1   30.2086	18.9813	-3.3
C1   30.8972	20.2236	-3.3
C1   32.3172	20.2484	-3.3
C1   33.0057	21.4907	-3.3
C1   34.4258	21.5155	-3.3
C1   35.1143	22.7577	-3.3
C1   36.5344	22.7826	-3.3
C1   37.2229	24.0248	-3.3
C1   38.643	24.0497	-3.3
C1   39.3315	25.2919	-3.3
C1   40.7515	25.3167	-3.3
C1   41.4401	26.559	-3.3
C1   42.8601	26.5838	-3.3
C1   43.5486	27.826	-3.3
C1   25.9484	18.9068	-3.3
C1   26.637	20.149	-3.3
C1   28.057	20.1739	-3.3
C1   28.7455	21.4161	-3.3
C1   30.1656	21.441	-3.3
C1   30.8541	22.6832	-3.3
C1   32.2742	22.708	-3.3
C1   32.9627	23.9503	-3.3
C1   34.3828	23.9751	-3.3
C1   35.0713	25.2174	-3.3
C1   36.4914	25.2422	-3.3
C1   37.1799	26.4844	-3.3
C1   38.5999	26.5093	-3.3
C1   39.2884	27.7515	-3.3
C1   40.7085	27.7764	-3.3
C1   41.397	29.0186	-3.3
C1   42.8171	29.0434	-3.3
C1   43.5056	30.2857	-3.3
C1   44.9257	30.3105	-3.3
C1   28.014	22.6335	-3.3
C1   28.7025	23.8757	-3.3
C1   30.1226	23.9006	-3.3
C1   30.8111	25.1428	-3.3
C1   32.2312	25.1677	-3.3
C1   32.9197	26.4099	-3.3
C1   34.3397	26.4347	-3.3
C1   35.0283	27.677	-3.3
C1   36.4483	27.7018	-3.3
C1   37.1368	28.9441	-3.3
C1   38.5569	28.9689	-3.3
C1   39.2454	30.2111	-3.3
C1   40.6655	30.236	-3.3
C1   30.0795	26.3602	-3.3
C1   30.7681	27.6024	-3.3
C1   32.1881	27.6273	-3.3
C1   32.8766	28.8695	-3.3
C1   34.2967	28.8944	-3.3
C1   34.9852	30.1366	-3.3
C1   36.4053	30.1614	-3.3
C1   32.1451	30.0869	-3.3
C1   26.9812	0.472049	-3.3
C1   28.4013	0.496894	-3.3
C1   29.0898	1.73913	-3.3
C1   22.721	0.397515	-3.3
C1   24.1411	0.42236	-3.3
C1   24.8296	1.66459	-3.3
C1   26.2497	1.68944	-3.3
C1   26.9382	2.93167	-3.3
C1   28.3583	2.95652	-3.3
C1   29.0468	4.19875	-3.3
C1   30.4668	4.2236	-3.3
C1   31.1554	5.46583	-3.3
C1   18.4608	0.322981	-3.3
C1   19.8809	0.347826	-3.3
C1   20.5694	1.59006	-3.3
C1   21.9895	1.6149	-3.3
C1   22.678	2.85714	-3.3
C1   24.0981	2.88198	-3.3
C1   24.7866	4.12422	-3.3
C1   26.2066	4.14906	-3.3
C1   26.8952	5.3913	-3.3
C1   28.3152	5.41614	-3.3
C1   29.0037	6.65837	-3.3
C1   30.4238	6.68322	-3.3
C1   31.1123	7.92545	-3.3
C1   32.5324	7.9503	-3.3
C1   33.2209	9.19253	-3.3
C1   15.6207	0.273292	-3.3
C1   16.3092	1.51553	-3.3
C1   17.7293	1.54037	-3.3
C1   18.4178	2.7826	-3.3
C1   19.8379	2.80745	-3.3
C1   20.5264	4.04968	-3.3
C1   21.9464	4.07453	-3.3
C1   22.635	5.31676	-3.3
C1   24.055	5.34161	-3.3
C1   24.7435	6.58384	-3.3
C1   26.1636	6.60869	-3.3
C1   26.8521	7.85092	-3.3
C1   28.2722	7.87576	-3.3
C1   28.9607	9.118	-3.3
C1   30.3808	9.14284	-3.3
C1   31.0693	10.3851	-3.3
C1   32.4894	10.4099	-3.3
C1   33.1779	11.6522	-3.3
C1   34.5979	11.677	-3.3
C1   35.2864	12.9192	-3.3
C1   17.6863	3.99999	-3.3
C1   18.3748	5.24223	-3.3
C1   19.7948	5.26707	-3.3
C1   20.4834	6.50931	-3.3
C1   21.9034	6.53415	-3.3
C1   22.5919	7.77639	-3.3
C1   24.012	7.80123	-3.3
C1   24.7005	9.04346	-3.3
C1   26.1206	9.06831	-3.3
C1   26.8091	10.3105	-3.3
C1   28.2292	10.3354	-3.3
C1   28.9177	11.5776	-3.3
C1   30.3377	11.6025	-3.3
C1   31.0263	12.8447	-3.3
C1   32.4463	12.8695	-3.3
C1   33.1348	14.1118	-3.3
C1   34.5549	14.1366	-3.3
C1   35.2434	15.3789	-3.3
C1   36.6635	15.4037	-3.3
C1   37.352	16.6459	-3.3
C1   19.7518	7.7267	-3.3
C1   20.4403	8.96893	-3.3
C1   21.8604	8.99378	-3.3
C1   22.5489	10.236	-3.3
C1   23.969	10.2609	-3.3
C1   24.6575	11.5031	-3.3
C1   26.0775	11.5279	-3.3
C1   26.7661	12.7702	-3.3
C1   28.1861	12.795	-3.3
C1   28.8746	14.0372	-3.3
C1   30.2947	14.0621	-3.3
C1   30.9832	15.3043	-3.3
C1   32.4033	15.3292	-3.3
C1   33.0918	16.5714	-3.3
C1   34.5119	16.5962	-3.3
C1   35.2004	17.8385	-3.3
C1   36.6204	17.8633	-3.3
C1   37.309	19.1056	-3.3
C1   38.729	19.1304	-3.3
C1   39.4175	20.3726	-3.3
C2   20.053	9.49067	0.0
C2   20.7846	10.7081	0.0
C2   22.2046	10.6832	0.0
C2   22.9362	11.9006	0.0
C2   24.3563	11.8758	0.0
C2   25.0878	13.0931	0.0
C2   26.5079	13.0683	0.0
C2   27.2394	14.2857	0.0
C2   28.6595	14.2608	0.0
C2   29.391	15.4782	0.0
C2   30.8111	15.4534	0.0
C2   31.5426	16.6708	0.0
C2   32.9627	16.6459	0.0
C2   33.6943	17.8633	0.0
C2   35.1143	17.8385	0.0
C2   35.8459	19.0559	0.0
C2   37.2659	19.031	0.0
C2   37.9975	20.2484	0.0
C2   39.4175	20.2236	0.0
C2   40.1491	21.441	0.0
C2   17.8584	5.8385	0.0
C2   18.5899	7.05589	0.0
C2   20.01	7.03105	0.0
C2   20.7415	8.24843	0.0
C2   22.1616	8.22359	0.0
C2   22.8932	9.44098	0.0
C2   24.3132	9.41613	0.0
C2   25.0448	10.6335	0.0
C2   26.4648	10.6087	0.0
C2   27.1964	11.8261	0.0
C2   28.6164	11.8012	0.0
C2   29.348	13.0186	0.0
C2   30.7681	12.9938	0.0
C2   31.4996	14.2112	0.0
C2   32.9197	14.1863	0.0
C2   33.6512	15.4037	0.0
C2   35.0713	15.3789	0.0
C2   35.8028	16.5962	0.0
C2   37.2229	16.5714	0.0
C2   37.9544	17.7888	0.0
C2   15.6637	2.18633	0.0
C2   16.3953	3.40372	0.0
C2   17.8154	3.37888	0.0
C2   18.5469	4.59627	0.0
C2   19.967	4.57142	0.0
C2   20.6985	5.78881	0.0
C2   22.1186	5.76397	0.0
C2   22.8501	6.98136	0.0
C2   24.2702	6.95651	0.0
C2   25.0017	8.1739	0.0
C2   26.4218	8.14906	0.0
C2   27.1534	9.36645	0.0
C2   28.5734	9.3416	0.0
C2   29.305	10.559	0.0
C2   30.725	10.5341	0.0
C2   31.4566	11.7515	0.0
C2   32.8766	11.7267	0.0
C2   33.6082	12.9441	0.0
C2   35.0283	12.9192	0.0
C2   35.7598	14.1366	0.0
C2   16.3523	0.944098	0.0
C2   17.7723	0.919253	0.0
C2   18.5039	2.13664	0.0
C2   19.9239	2.1118	0.0
C2   20.6555	3.32919	0.0
C2   22.0755	3.30434	0.0
C2   22.8071	4.52173	0.0
C2   24.2272	4.49689	0.0
C2   24.9587	5.71428	0.0
C2   26.3788	5.68943	0.0
C2   27.1103	6.90682	0.0
C2   28.5304	6.88198	0.0
C2   29.2619	8.09937	0.0
C2   30.682	8.07452	0.0
C2   31.4135	9.29191	0.0
C2   32.8336	9.26707	0.0
C2   33.5652	10.4845	0.0
C2   20.6124	0.869564	0.0
C2   22.0325	0.844719	0.0
C2   22.7641	2.06211	0.0
C2   24.1841	2.03726	0.0
C2   24.9157	3.25465	0.0
C2   26.3357	3.22981	0.0
C2   27.0673	4.4472	0.0
C2   28.4874	4.42235	0.0
C2   29.2189	5.63974	0.0
C2   30.639	5.6149	0.0
C2   31.3705	6.83229	0.0
C2   24.8726	0.79503	0.0
C2   26.2927	0.770185	0.0
C2   27.0243	1.98757	0.0
C2   28.4443	1.96273	0.0
C2   29.1759	3.18012	0.0
C2   31.0263	27.7515	0.0
C2   31.7578	28.9689	0.0
C2   33.1779	28.9441	0.0
C2   33.9094	30.1614	0.0
C2   35.3295	30.1366	0.0
C2   28.8316	24.0993	0.0
C2   29.5632	25.3167	0.0
C2   30.9832	25.2919	0.0
C2   31.7148	26.5093	0.0
C2   33.1348	26.4844	0.0
C2   33.8664	27.7018	0.0
C2   35.2864	27.677	0.0
C2   36.018	28.8944	0.0
C2   37.4381	28.8695	0.0
C2   38.1696	30.0869	0.0
C2   39.5897	30.0621	0.0
C2   26.637	20.4472	0.0
C2   27.3685	21.6646	0.0
C2   28.7886	21.6397	0.0
C2   29.5201	22.8571	0.0
C2   30.9402	22.8323	0.0
C2   31.6717	24.0497	0.0
C2   33.0918	24.0248	0.0
C2   33.8234	25.2422	0.0
C2   35.2434	25.2174	0.0
C2   35.975	26.4347	0.0
C2   37.395	26.4099	0.0
C2   38.1266	27.6273	0.0
C2   39.5466	27.6024	0.0
C2   40.2782	28.8198	0.0
C2   41.6983	28.795	0.0
C2   42.4298	30.0124	0.0
C2   43.8499	29.9875	0.0
C2   24.4423	16.795	0.0
C2   25.1739	18.0124	0.0
C2   26.5939	17.9876	0.0
C2   27.3255	19.2049	0.0
C2   28.7455	19.1801	0.0
C2   29.4771	20.3975	0.0
C2   30.8972	20.3726	0.0
C2   31.6287	21.59	0.0
C2   33.0488	21.5652	0.0
C2   33.7803	22.7826	0.0
C2   35.2004	22.7577	0.0
C2   35.9319	23.9751	0.0
C2   37.352	23.9503	0.0
C2   38.0835	25.1677	0.0
C2   39.5036	25.1428	0.0
C2   40.2352	26.3602	0.0
C2   41.6552	26.3354	0.0
C2   42.3868	27.5528	0.0
C2   43.8068	27.5279	0.0
C2   44.5384	28.7453	0.0
C2   22.2477	13.1428	0.0
C2   22.9792	14.3602	0.0
C2   24.3993	14.3354	0.0
C2   25.1308	15.5528	0.0
C2   26.5509	15.5279	0.0
C2   27.2824	16.7453	0.0
C2   28.7025	16.7205	0.0
C2   29.4341	17.9379	0.0
C2   30.8541	17.913	0.0
C2   31.5857	19.1304	0.0
C2   33.0057	19.1056	0.0
C2   33.7373	20.323	0.0
C2   35.1574	20.2981	0.0
C2   35.8889	21.5155	0.0
C2   37.309	21.4907	0.0
C2   38.0405	22.708	0.0
C2   39.4606	22.6832	0.0
C2   40.1921	23.9006	0.0
C2   41.6122	23.8757	0.0
C2   42.3437	25.0931	0.0
C1   45.6142	31.5527	-3.3
C1   41.354	31.4782	-3.3
C1   42.7741	31.5031	-3.3
C1   43.4626	32.7453	-3.3
C1   44.8826	32.7701	-3.3
C1   45.5712	34.0124	-3.3
C1   46.9912	34.0372	-3.3
C1   47.6797	35.2794	-3.3
C1   37.0938	31.4037	-3.3
C1   38.5139	31.4285	-3.3
C1   39.2024	32.6708	-3.3
C1   40.6224	32.6956	-3.3
C1   41.311	33.9378	-3.3
C1   42.731	33.9627	-3.3
C1   43.4195	35.2049	-3.3
C1   44.8396	35.2298	-3.3
C1   45.5281	36.472	-3.3
C1   46.9482	36.4968	-3.3
C1   47.6367	37.7391	-3.3
C1   49.0568	37.7639	-3.3
C1   49.7453	39.0062	-3.3
C1   32.8336	31.3291	-3.3
C1   34.2537	31.354	-3.3
C1   34.9422	32.5962	-3.3
C1   36.3623	32.6211	-3.3
C1   37.0508	33.8633	-3.3
C1   38.4708	33.8881	-3.3
C1   39.1594	35.1304	-3.3
C1   40.5794	35.1552	-3.3
C1   41.2679	36.3975	-3.3
C1   42.688	36.4223	-3.3
C1   43.3765	37.6645	-3.3
C1   44.7966	37.6894	-3.3
C1   45.4851	38.9316	-3.3
C1   46.9052	38.9565	-3.3
C1   47.5937	40.1987	-3.3
C1   49.0137	40.2235	-3.3
C1   49.7023	41.4658	-3.3
C1   51.1223	41.4906	-3.3
C1   51.8108	42.7329	-3.3
C1   34.2106	33.8136	-3.3
C1   34.8992	35.0558	-3.3
C1   36.3192	35.0807	-3.3
C1   37.0077	36.3229	-3.3
C1   38.4278	36.3478	-3.3
C1   39.1163	37.59	-3.3
C1   40.5364	37.6148	-3.3
C1   41.2249	38.8571	-3.3
C1   42.645	38.8819	-3.3
C1   43.3335	40.1242	-3.3
C1   44.7535	40.149	-3.3
C1   45.4421	41.3912	-3.3
C1   46.8621	41.4161	-3.3
C1   47.5506	42.6583	-3.3
C1   48.9707	42.6832	-3.3
C1   49.6592	43.9254	-3.3
C1   51.0793	43.9502	-3.3
C1   51.7678	45.1925	-3.3
C1   53.1879	45.2173	-3.3
C1   53.8764	46.4596	-3.3
C1   36.2762	37.5403	-3.3
C1   36.9647	38.7825	-3.3
C1   38.3848	38.8074	-3.3
C1   39.0733	40.0496	-3.3
C1   40.4933	40.0745	-3.3
C1   41.1819	41.3167	-3.3
C1   42.6019	41.3416	-3.3
C1   43.2904	42.5838	-3.3
C1   44.7105	42.6086	-3.3
C1   45.399	43.8509	-3.3
C1   46.8191	43.8757	-3.3
C1   47.5076	45.1179	-3.3
C1   48.9277	45.1428	-3.3
C1   49.6162	46.385	-3.3
C1   51.0363	46.4099	-3.3
C1   51.7248	47.6521	-3.3
C1   53.1448	47.6769	-3.3
C1   53.8333	48.9192	-3.3
C1   55.2534	48.944	-3.3
C1   55.9419	50.1863	-3.3
C1   38.3417	41.267	-3.3
C1   39.0303	42.5093	-3.3
C1   40.4503	42.5341	-3.3
C1   41.1388	43.7763	-3.3
C1   42.5589	43.8012	-3.3
C1   43.2474	45.0434	-3.3
C1   44.6675	45.0683	-3.3
C1   45.356	46.3105	-3.3
C1   46.7761	46.3353	-3.3
C1   47.4646	47.5776	-3.3
C1   48.8846	47.6024	-3.3
C1   49.5732	48.8446	-3.3
C1   50.9932	48.8695	-3.3
C1   51.6817	50.1117	-3.3
C1   53.1018	50.1366	-3.3
C1   53.7903	51.3788	-3.3
C1   55.2104	51.4036	-3.3
C1   55.8989	52.6459	-3.3
C1   57.319	52.6707	-3.3
C1   58.0075	53.913	-3.3
C1   40.4073	44.9937	-3.3
C1   41.0958	46.236	-3.3
C1   42.5159	46.2608	-3.3
C1   43.2044	47.503	-3.3
C1   44.6244	47.5279	-3.3
C1   45.313	48.7701	-3.3
C1   46.733	48.795	-3.3
C1   47.4215	50.0372	-3.3
C1   48.8416	50.062	-3.3
C1   49.5301	51.3043	-3.3
C1   50.9502	51.3291	-3.3
C1   51.6387	52.5713	-3.3
C1   53.0588	52.5962	-3.3
C1   53.7473	53.8384	-3.3
C1   55.1673	53.8633	-3.3
C1   55.8559	55.1055	-3.3
C1   57.2759	55.1304	-3.3
C1   57.9644	56.3726	-3.3
C1   59.3845	56.3974	-3.3
C1   60.073	57.6397	-3.3
C1   42.4728	48.7204	-3.3
C1   43.1613	49.9627	-3.3
C1   44.5814	49.9875	-3.3
C1   45.2699	51.2297	-3.3
C1   46.69	51.2546	-3.3
C1   47.3785	52.4968	-3.3
C1   48.7986	52.5217	-3.3
C1   49.4871	53.7639	-3.3
C1   50.9072	53.7887	-3.3
C1   51.5957	55.031	-3.3
C1   53.0157	55.0558	-3.3
C1   53.7043	56.2981	-3.3
C1   55.1243	56.3229	-3.3
C1   55.8128	57.5651	-3.3
C1   57.2329	57.59	-3.3
C1   57.9214	58.8322	-3.3
C1   59.3415	58.8571	-3.3
C1   60.03	60.0993	-3.3
C1   61.4501	60.1241	-3.3
C1   44.5384	52.4471	-3.3
C1   45.2269	53.6894	-3.3
C1   46.647	53.7142	-3.3
C1   47.3355	54.9564	-3.3
C1   48.7555	54.9813	-3.3
C1   49.4441	56.2235	-3.3
C1   50.8641	56.2484	-3.3
C1   51.5526	57.4906	-3.3
C1   52.9727	57.5154	-3.3
C1   53.6612	58.7577	-3.3
C1   55.0813	58.7825	-3.3
C1   55.7698	60.0248	-3.3
C1   57.1899	60.0496	-3.3
C1   46.6039	56.1738	-3.3
C1   47.2924	57.4161	-3.3
C1   48.7125	57.4409	-3.3
C1   49.401	58.6831	-3.3
C1   50.8211	58.708	-3.3
C1   51.5096	59.9502	-3.3
C1   52.9297	59.9751	-3.3
C1   48.6695	59.9005	-3.3
C2   48.6264	59.4285	0.0
C2   49.358	60.6459	0.0
C2   50.7781	60.621	0.0
C2   46.4318	55.7763	0.0
C2   47.1633	56.9937	0.0
C2   48.5834	56.9689	0.0
C2   49.315	58.1862	0.0
C2   50.735	58.1614	0.0
C2   51.4666	59.3788	0.0
C2   52.8866	59.3539	0.0
C2   53.6182	60.5713	0.0
C2   55.0383	60.5465	0.0
C2   44.2372	52.1241	0.0
C2   44.9687	53.3415	0.0
C2   46.3888	53.3167	0.0
C2   47.1203	54.5341	0.0
C2   48.5404	54.5092	0.0
C2   49.2719	55.7266	0.0
C2   50.692	55.7018	0.0
C2   51.4235	56.9192	0.0
C2   52.8436	56.8943	0.0
C2   53.5752	58.1117	0.0
C2   54.9952	58.0869	0.0
C2   55.7268	59.3043	0.0
C2   57.1468	59.2794	0.0
C2   57.8784	60.4968	0.0
C2   59.2984	60.472	0.0
C2   42.7741	49.6894	0.0
C2   44.1941	49.6645	0.0
C2   44.9257	50.8819	0.0
C2   46.3457	50.8571	0.0
C2   47.0773	52.0745	0.0
C2   48.4973	52.0496	0.0
C2   49.2289	53.267	0.0
C2   50.649	53.2422	0.0
C2   51.3805	54.4595	0.0
C2   52.8006	54.4347	0.0
C2   53.5321	55.6521	0.0
C2   54.9522	55.6272	0.0
C2   55.6837	56.8446	0.0
C2   57.1038	56.8198	0.0
C2   57.8353	58.0372	0.0
C2   59.2554	58.0123	0.0
C2   59.987	59.2297	0.0
C2   61.407	59.2049	0.0
C2   62.1386	60.4223	0.0
C2   41.9995	46.0124	0.0
C2   42.731	47.2297	0.0
C2   44.1511	47.2049	0.0
C2   44.8826	48.4223	0.0
C2   46.3027	48.3974	0.0
C2   47.0343	49.6148	0.0
C2   48.4543	49.59	0.0
C2   49.1859	50.8074	0.0
C2   50.6059	50.7825	0.0
C2   51.3375	51.9999	0.0
C2   52.7575	51.9751	0.0
C2   53.4891	53.1925	0.0
C2   54.9092	53.1676	0.0
C2   55.6407	54.385	0.0
C2   57.0608	54.3602	0.0
C2   57.7923	55.5776	0.0
C2   59.2124	55.5527	0.0
C2   59.9439	56.7701	0.0
C2   39.8048	42.3602	0.0
C2   40.5364	43.5776	0.0
C2   41.9564	43.5527	0.0
C2   42.688	44.7701	0.0
C2   44.1081	44.7453	0.0
C2   44.8396	45.9627	0.0
C2   46.2597	45.9378	0.0
C2   46.9912	47.1552	0.0
C2   48.4113	47.1304	0.0
C2   49.1428	48.3478	0.0
C2   50.5629	48.3229	0.0
C2   51.2944	49.5403	0.0
C2   52.7145	49.5155	0.0
C2   53.4461	50.7328	0.0
C2   54.8661	50.708	0.0
C2   55.5977	51.9254	0.0
C2   57.0177	51.9005	0.0
C2   57.7493	53.1179	0.0
C2   37.6102	38.708	0.0
C2   38.3417	39.9254	0.0
C2   39.7618	39.9006	0.0
C2   40.4933	41.1179	0.0
C2   41.9134	41.0931	0.0
C2   42.645	42.3105	0.0
C2   44.065	42.2857	0.0
C2   44.7966	43.503	0.0
C2   46.2166	43.4782	0.0
C2   46.9482	44.6956	0.0
C2   48.3683	44.6707	0.0
C2   49.0998	45.8881	0.0
C2   50.5199	45.8633	0.0
C2   51.2514	47.0807	0.0
C2   52.6715	47.0558	0.0
C2   53.403	48.2732	0.0
C2   54.8231	48.2484	0.0
C2   55.5546	49.4658	0.0
C2   35.4155	35.0558	0.0
C2   36.1471	36.2732	0.0
C2   37.5672	36.2484	0.0
C2   38.2987	37.4658	0.0
C2   39.7188	37.4409	0.0
C2   40.4503	38.6583	0.0
C2   41.8704	38.6335	0.0
C2   42.6019	39.8509	0.0
C2   44.022	39.826	0.0
C2   44.7535	41.0434	0.0
C2   46.1736	41.0186	0.0
C2   46.9052	42.236	0.0
C2   48.3252	42.2111	0.0
C2   49.0568	43.4285	0.0
C2   50.4768	43.4037	0.0
C2   51.2084	44.6211	0.0
C2   52.6284	44.5962	0.0
C2   53.36	45.8136	0.0
C2   33.2209	31.4037	0.0
C2   33.9524	32.6211	0.0
C2   35.3725	32.5962	0.0
C2   36.1041	33.8136	0.0
C2   37.5241	33.7888	0.0
C2   38.2557	35.0062	0.0
C2   39.6757	34.9813	0.0
C2   40.4073	36.1987	0.0
C2   41.8273	36.1739	0.0
C2   42.5589	37.3912	0.0
C2   43.979	37.3664	0.0
C2   44.7105	38.5838	0.0
C2   46.1306	38.5589	0.0
C2   46.8621	39.7763	0.0
C2   48.2822	39.7515	0.0
C2   49.0137	40.9689	0.0
C2   50.4338	40.944	0.0
C2   51.1653	42.1614	0.0
C2   36.061	31.354	0.0
C2   37.4811	31.3291	0.0
C2   38.2126	32.5465	0.0
C2   39.6327	32.5217	0.0
C2   40.3643	33.7391	0.0
C2   41.7843	33.7142	0.0
C2   42.5159	34.9316	0.0
C2   43.9359	34.9068	0.0
C2   44.6675	36.1242	0.0
C2   46.0875	36.0993	0.0
C2   46.8191	37.3167	0.0
C2   48.2392	37.2919	0.0
C2   48.9707	38.5093	0.0
C2   40.3212	31.2795	0.0
C2   41.7413	31.2546	0.0
C2   42.4728	32.472	0.0
C2   43.8929	32.4472	0.0
C2   44.6244	33.6645	0.0
C2   46.0445	33.6397	0.0
C2   46.7761	34.8571	0.0
C2   48.1961	34.8322	0.0
C2   48.9277	36.0496	0.0
C2   44.5814	31.2049	0.0
C2   46.0015	31.1801	0.0
C2   46.733	32.3975	0.0
C1   42.9032	24.1242	-3.3
C1   43.5917	25.3664	-3.3
C1   45.0117	25.3913	-3.3
C1   45.7003	26.6335	-3.3
C1   47.1203	26.6583	-3.3
C1   47.8088	27.9006	-3.3
C1   49.2289	27.9254	-3.3
C1   49.9174	29.1677	-3.3
C1   51.3375	29.1925	-3.3
C1   52.026	30.4347	-3.3
C1   44.9687	27.8509	-3.3
C1   45.6572	29.0931	-3.3
C1   47.0773	29.118	-3.3
C1   47.7658	30.3602	-3.3
C1   49.1859	30.385	-3.3
C1   39.7618	0.695651	-3.3
C1   41.1819	0.720496	-3.3
C1   41.8704	1.96273	-3.3
C1   43.2904	1.98757	-3.3
C1   43.979	3.22981	-3.3
C1   35.5016	0.621117	-3.3
C1   36.9217	0.645962	-3.3
C1   37.6102	1.8882	-3.3
C1   39.0303	1.91304	-3.3
C1   39.7188	3.15527	-3.3
C1   41.1388	3.18012	-3.3
C1   41.8273	4.42235	-3.3
C1   43.2474	4.4472	-3.3
C1   43.9359	5.68943	-3.3
C1   45.356	5.71428	-3.3
C1   46.0445	6.95651	-3.3
C1   31.2414	0.546583	-3.3
C1   32.6615	0.571428	-3.3
C1   33.35	1.81366	-3.3
C1   34.7701	1.83851	-3.3
C1   35.4586	3.08074	-3.3
C1   36.8786	3.10559	-3.3
C1   37.5672	4.34782	-3.3
C1   38.9872	4.37266	-3.3
C1   39.6757	5.6149	-3.3
C1   41.0958	5.63974	-3.3
C1   41.7843	6.88198	-3.3
C1   43.2044	6.90682	-3.3
C1   43.8929	8.14906	-3.3
C1   45.313	8.1739	-3.3
C1   46.0015	9.41613	-3.3
C1   47.4215	9.44098	-3.3
C1   48.1101	10.6832	-3.3
C1   30.5099	1.76397	-3.3
C1   31.1984	3.00621	-3.3
C1   32.6184	3.03105	-3.3
C1   33.307	4.27329	-3.3
C1   34.727	4.29813	-3.3
C1   35.4155	5.54036	-3.3
C1   36.8356	5.56521	-3.3
C1   37.5241	6.80744	-3.3
C1   38.9442	6.83229	-3.3
C1   39.6327	8.07452	-3.3
C1   41.0528	8.09937	-3.3
C1   41.7413	9.3416	-3.3
C1   43.1613	9.36645	-3.3
C1   43.8499	10.6087	-3.3
C1   45.2699	10.6335	-3.3
C1   45.9584	11.8758	-3.3
C1   47.3785	11.9006	-3.3
C1   48.067	13.1428	-3.3
C1   49.4871	13.1677	-3.3
C1   50.1756	14.4099	-3.3
C1   32.5754	5.49067	-3.3
C1   33.2639	6.73291	-3.3
C1   34.684	6.75775	-3.3
C1   35.3725	7.99999	-3.3
C1   36.7926	8.02483	-3.3
C1   37.4811	9.26707	-3.3
C1   38.9012	9.29191	-3.3
C1   39.5897	10.5341	-3.3
C1   41.0097	10.559	-3.3
C1   41.6983	11.8012	-3.3
C1   43.1183	11.8261	-3.3
C1   43.8068	13.0683	-3.3
C1   45.2269	13.0931	-3.3
C1   45.9154	14.3354	-3.3
C1   47.3355	14.3602	-3.3
C1   48.024	15.6025	-3.3
C1   49.4441	15.6273	-3.3
C1   50.1326	16.8695	-3.3
C1   51.5526	16.8944	-3.3
C1   52.2412	18.1366	-3.3
C1   34.641	9.21738	-3.3
C1   35.3295	10.4596	-3.3
C1   36.7495	10.4845	-3.3
C1   37.4381	11.7267	-3.3
C1   38.8581	11.7515	-3.3
C1   39.5466	12.9938	-3.3
C1   40.9667	13.0186	-3.3
C1   41.6552	14.2608	-3.3
C1   43.0753	14.2857	-3.3
C1   43.7638	15.5279	-3.3
C1   45.1839	15.5528	-3.3
C1   45.8724	16.795	-3.3
C1   47.2924	16.8199	-3.3
C1   47.981	18.0621	-3.3
C1   49.401	18.0869	-3.3
C1   50.0895	19.3292	-3.3
C1   51.5096	19.354	-3.3
C1   52.1981	20.5962	-3.3
C1   53.6182	20.6211	-3.3
C1   54.3067	21.8633	-3.3
C1   36.7065	12.9441	-3.3
C1   37.395	14.1863	-3.3
C1   38.8151	14.2112	-3.3
C1   39.5036	15.4534	-3.3
C1   40.9237	15.4782	-3.3
C1   41.6122	16.7205	-3.3
C1   43.0323	16.7453	-3.3
C1   43.7208	17.9876	-3.3
C1   45.1408	18.0124	-3.3
C1   45.8293	19.2546	-3.3
C1   47.2494	19.2795	-3.3
C1   47.9379	20.5217	-3.3
C1   49.358	20.5466	-3.3
C1   50.0465	21.7888	-3.3
C1   51.4666	21.8136	-3.3
C1   52.1551	23.0559	-3.3
C1   53.5752	23.0807	-3.3
C1   54.2637	24.3229	-3.3
C1   55.6837	24.3478	-3.3
C1   56.3723	25.59	-3.3
C1   38.7721	16.6708	-3.3
C1   39.4606	17.913	-3.3
C1   40.8806	17.9379	-3.3
C1   41.5692	19.1801	-3.3
C1   42.9892	19.2049	-3.3
C1   43.6777	20.4472	-3.3
C1   45.0978	20.472	-3.3
C1   45.7863	21.7143	-3.3
C1   47.2064	21.7391	-3.3
C1   47.8949	22.9813	-3.3
C1   49.315	23.0062	-3.3
C1   50.0035	24.2484	-3.3
C1   51.4235	24.2733	-3.3
C1   52.1121	25.5155	-3.3
C1   53.5321	25.5403	-3.3
C1   54.2206	26.7826	-3.3
C1   55.6407	26.8074	-3.3
C1   56.3292	28.0496	-3.3
C1   57.7493	28.0745	-3.3
C1   58.4378	29.3167	-3.3
C1   40.8376	20.3975	-3.3
C1   41.5261	21.6397	-3.3
C1   42.9462	21.6646	-3.3
C1   43.6347	22.9068	-3.3
C1   45.0548	22.9316	-3.3
C1   45.7433	24.1739	-3.3
C1   47.1633	24.1987	-3.3
C1   47.8519	25.441	-3.3
C1   49.2719	25.4658	-3.3
C1   49.9604	26.708	-3.3
C1   51.3805	26.7329	-3.3
C1   52.069	27.9751	-3.3
C1   53.4891	28	-3.3
C1   54.1776	29.2422	-3.3
C1   55.5977	29.267	-3.3
C2   41.5692	21.4161	0.0
C2   42.3007	22.6335	0.0
C2   43.7208	22.6087	0.0
C2   44.4523	23.8261	0.0
C2   45.8724	23.8012	0.0
C2   46.6039	25.0186	0.0
C2   48.024	24.9938	0.0
C2   48.7555	26.2111	0.0
C2   50.1756	26.1863	0.0
C2   50.9072	27.4037	0.0
C2   52.3272	27.3788	0.0
C2   53.0588	28.5962	0.0
C2   54.4788	28.5714	0.0
C2   55.2104	29.7888	0.0
C2   56.6304	29.7639	0.0
C2   39.3745	17.7639	0.0
C2   40.1061	18.9813	0.0
C2   41.5261	18.9565	0.0
C2   42.2577	20.1739	0.0
C2   43.6777	20.149	0.0
C2   44.4093	21.3664	0.0
C2   45.8293	21.3416	0.0
C2   46.5609	22.559	0.0
C2   47.981	22.5341	0.0
C2   48.7125	23.7515	0.0
C2   50.1326	23.7267	0.0
C2   50.8641	24.9441	0.0
C2   52.2842	24.9192	0.0
C2   53.0157	26.1366	0.0
C2   54.4358	26.1118	0.0
C2   55.1673	27.3292	0.0
C2   56.5874	27.3043	0.0
C2   57.319	28.5217	0.0
C2   37.1799	14.1118	0.0
C2   37.9114	15.3292	0.0
C2   39.3315	15.3043	0.0
C2   40.063	16.5217	0.0
C2   41.4831	16.4969	0.0
C2   42.2146	17.7143	0.0
C2   43.6347	17.6894	0.0
C2   44.3663	18.9068	0.0
C2   45.7863	18.882	0.0
C2   46.5179	20.0993	0.0
C2   47.9379	20.0745	0.0
C2   48.6695	21.2919	0.0
C2   50.0895	21.267	0.0
C2   50.8211	22.4844	0.0
C2   52.2412	22.4596	0.0
C2   52.9727	23.677	0.0
C2   54.3928	23.6521	0.0
C2   55.1243	24.8695	0.0
C2   34.9852	10.4596	0.0
C2   35.7168	11.677	0.0
C2   37.1368	11.6522	0.0
C2   37.8684	12.8695	0.0
C2   39.2884	12.8447	0.0
C2   40.02	14.0621	0.0
C2   41.4401	14.0372	0.0
C2   42.1716	15.2546	0.0
C2   43.5917	15.2298	0.0
C2   44.3232	16.4472	0.0
C2   45.7433	16.4223	0.0
C2   46.4748	17.6397	0.0
C2   47.8949	17.6149	0.0
C2   48.6264	18.8323	0.0
C2   50.0465	18.8074	0.0
C2   50.7781	20.0248	0.0
C2   52.1981	20	0.0
C2   52.9297	21.2174	0.0
C2   54.3497	21.1925	0.0
C2   55.0813	22.4099	0.0
C2   32.7906	6.80744	0.0
C2   33.5221	8.02483	0.0
C2   34.9422	7.99999	0.0
C2   35.6737	9.21738	0.0
C2   37.0938	9.19253	0.0
C2   37.8254	10.4099	0.0
C2   39.2454	10.3851	0.0
C2   39.977	11.6025	0.0
C2   41.397	11.5776	0.0
C2   42.1286	12.795	0.0
C2   43.5486	12.7702	0.0
C2   44.2802	13.9876	0.0
C2   45.7003	13.9627	0.0
C2   46.4318	15.1801	0.0
C2   47.8519	15.1553	0.0
C2   48.5834	16.3726	0.0
C2   50.0035	16.3478	0.0
C2   50.735	17.5652	0.0
C2   52.1551	17.5403	0.0
C2   52.8866	18.7577	0.0
C2   30.5959	3.15527	0.0
C2   31.3275	4.37266	0.0
C2   32.7475	4.34782	0.0
C2   33.4791	5.56521	0.0
C2   34.8992	5.54036	0.0
C2   35.6307	6.75775	0.0
C2   37.0508	6.73291	0.0
C2   37.7823	7.9503	0.0
C2   39.2024	7.92545	0.0
C2   39.9339	9.14284	0.0
C2   41.354	9.118	0.0
C2   42.0855	10.3354	0.0
C2   43.5056	10.3105	0.0
C2   44.2372	11.5279	0.0
C2   45.6572	11.5031	0.0
C2   46.3888	12.7205	0.0
C2   47.8088	12.6956	0.0
C2   48.5404	13.913	0.0
C2   49.9604	13.8882	0.0
C2   50.692	15.1056	0.0
C2   29.1328	0.720496	0.0
C2   30.5529	0.695651	0.0
C2   31.2844	1.91304	0.0
C2   32.7045	1.8882	0.0
C2   33.4361	3.10559	0.0
C2   34.8561	3.08074	0.0
C2   35.5877	4.29813	0.0
C2   37.0077	4.27329	0.0
C2   37.7393	5.49067	0.0
C2   39.1594	5.46583	0.0
C2   39.8909	6.68322	0.0
C2   41.311	6.65837	0.0
C2   42.0425	7.87576	0.0
C2   43.4626	7.85092	0.0
C2   44.1941	9.06831	0.0
C2   45.6142	9.04346	0.0
C2   46.3457	10.2609	0.0
C2   47.7658	10.236	0.0
C2   48.4973	11.4534	0.0
C2   33.393	0.645962	0.0
C2   34.8131	0.621117	0.0
C2   35.5446	1.83851	0.0
C2   36.9647	1.81366	0.0
C2   37.6963	3.03105	0.0
C2   39.1163	3.00621	0.0
C2   39.8479	4.2236	0.0
C2   41.2679	4.19875	0.0
C2   41.9995	5.41614	0.0
C2   43.4195	5.3913	0.0
C2   44.1511	6.60869	0.0
C2   45.5712	6.58384	0.0
C2   46.3027	7.80123	0.0
C2   37.6532	0.571428	0.0
C2   39.0733	0.546583	0.0
C2   39.8048	1.76397	0.0
C2   41.2249	1.73913	0.0
C2   41.9564	2.95652	0.0
C2   43.3765	2.93167	0.0
C2   44.1081	4.14906	0.0
C2   41.9134	0.496894	0.0
C2   45.9584	28.7205	0.0
C2   46.69	29.9378	0.0
C2   48.1101	29.913	0.0
C2   43.7638	25.0683	0.0
C2   44.4953	26.2857	0.0
C2   45.9154	26.2608	0.0
C2   46.647	27.4782	0.0
C2   48.067	27.4534	0.0
C2   48.7986	28.6708	0.0
C2   50.2186	28.6459	0.0
C2   50.9502	29.8633	0.0
C2   52.3703	29.8385	0.0
C1   53.4461	30.4596	-3.3
C1   54.1346	31.7018	-3.3
C1   55.5546	31.7267	-3.3
C1   56.2432	32.9689	-3.3
C1   57.6632	32.9937	-3.3
C1   58.3517	34.236	-3.3
C1   59.7718	34.2608	-3.3
C1   60.4603	35.5031	-3.3
C1   61.8804	35.5279	-3.3
C1   62.5689	36.7701	-3.3
C1   49.8744	31.6273	-3.3
C1   51.2944	31.6521	-3.3
C1   51.983	32.8944	-3.3
C1   53.403	32.9192	-3.3
C1   54.0915	34.1614	-3.3
C1   55.5116	34.1863	-3.3
C1   56.2001	35.4285	-3.3
C1   57.6202	35.4534	-3.3
C1   58.3087	36.6956	-3.3
C1   59.7288	36.7204	-3.3
C1   60.4173	37.9627	-3.3
C1   61.8373	37.9875	-3.3
C1   62.5259	39.2298	-3.3
C1   63.9459	39.2546	-3.3
C1   64.6344	40.4968	-3.3
C1   47.0343	31.5776	-3.3
C1   47.7228	32.8198	-3.3
C1   49.1428	32.8447	-3.3
C1   49.8313	34.0869	-3.3
C1   51.2514	34.1117	-3.3
C1   51.9399	35.354	-3.3
C1   53.36	35.3788	-3.3
C1   54.0485	36.6211	-3.3
C1   55.4686	36.6459	-3.3
C1   56.1571	37.8881	-3.3
C1   57.5772	37.913	-3.3
C1   58.2657	39.1552	-3.3
C1   59.6857	39.1801	-3.3
C1   60.3743	40.4223	-3.3
C1   61.7943	40.4471	-3.3
C1   62.4828	41.6894	-3.3
C1   63.9029	41.7142	-3.3
C1   64.5914	42.9565	-3.3
C1   66.0115	42.9813	-3.3
C1   66.7	44.2235	-3.3
C1   49.0998	35.3043	-3.3
C1   49.7883	36.5465	-3.3
C1   51.2084	36.5714	-3.3
C1   51.8969	37.8136	-3.3
C1   53.317	37.8385	-3.3
C1   54.0055	39.0807	-3.3
C1   55.4255	39.1055	-3.3
C1   56.1141	40.3478	-3.3
C1   57.5341	40.3726	-3.3
C1   58.2226	41.6148	-3.3
C1   59.6427	41.6397	-3.3
C1   60.3312	42.8819	-3.3
C1   61.7513	42.9068	-3.3
C1   62.4398	44.149	-3.3
C1   63.8599	44.1738	-3.3
C1   64.5484	45.4161	-3.3
C1   65.9684	45.4409	-3.3
C1   66.657	46.6832	-3.3
C1   68.077	46.708	-3.3
C1   68.7655	47.9502	-3.3
C1   51.1653	39.031	-3.3
C1   51.8539	40.2732	-3.3
C1   53.2739	40.2981	-3.3
C1   53.9624	41.5403	-3.3
C1   55.3825	41.5652	-3.3
C1   56.071	42.8074	-3.3
C1   57.4911	42.8322	-3.3
C1   58.1796	44.0745	-3.3
C1   59.5997	44.0993	-3.3
C1   60.2882	45.3415	-3.3
C1   61.7083	45.3664	-3.3
C1   62.3968	46.6086	-3.3
C1   63.8168	46.6335	-3.3
C1   64.5053	47.8757	-3.3
C1   65.9254	47.9005	-3.3
C1   66.6139	49.1428	-3.3
C1   68.034	49.1676	-3.3
C1   68.7225	50.4099	-3.3
C1   70.1426	50.4347	-3.3
C1   70.8311	51.6769	-3.3
C1   53.2309	42.7577	-3.3
C1   53.9194	43.9999	-3.3
C1   55.3395	44.0248	-3.3
C1   56.028	45.267	-3.3
C1   57.4481	45.2919	-3.3
C1   58.1366	46.5341	-3.3
C1   59.5566	46.5589	-3.3
C1   60.2452	47.8012	-3.3
C1   61.6652	47.826	-3.3
C1   62.3537	49.0682	-3.3
C1   63.7738	49.0931	-3.3
C1   64.4623	50.3353	-3.3
C1   65.8824	50.3602	-3.3
C1   66.5709	51.6024	-3.3
C1   67.991	51.6273	-3.3
C1   68.6795	52.8695	-3.3
C1   70.0995	52.8943	-3.3
C1   70.7881	54.1366	-3.3
C1   72.2081	54.1614	-3.3
C1   72.8966	55.4036	-3.3
C1   55.2964	46.4844	-3.3
C1   55.985	47.7266	-3.3
C1   57.405	47.7515	-3.3
C1   58.0935	48.9937	-3.3
C1   59.5136	49.0186	-3.3
C1   60.2021	50.2608	-3.3
C1   61.6222	50.2856	-3.3
C1   62.3107	51.5279	-3.3
C1   63.7308	51.5527	-3.3
C1   64.4193	52.795	-3.3
C1   65.8393	52.8198	-3.3
C1   66.5279	54.062	-3.3
C1   67.9479	54.0869	-3.3
C1   68.6364	55.3291	-3.3
C1   70.0565	55.354	-3.3
C1   70.745	56.5962	-3.3
C1   72.1651	56.621	-3.3
C1   72.8536	57.8633	-3.3
C1   74.2737	57.8881	-3.3
C1   74.9622	59.1303	-3.3
C1   57.362	50.2111	-3.3
C1   58.0505	51.4533	-3.3
C1   59.4706	51.4782	-3.3
C1   60.1591	52.7204	-3.3
C1   61.5792	52.7453	-3.3
C1   62.2677	53.9875	-3.3
C1   63.6877	54.0123	-3.3
C1   64.3763	55.2546	-3.3
C1   65.7963	55.2794	-3.3
C1   66.4848	56.5217	-3.3
C1   67.9049	56.5465	-3.3
C1   68.5934	57.7887	-3.3
C1   70.0135	57.8136	-3.3
C1   70.702	59.0558	-3.3
C1   72.1221	59.0807	-3.3
C1   72.8106	60.3229	-3.3
C1   74.2306	60.3477	-3.3
C1   59.4275	53.9378	-3.3
C1   60.1161	55.18	-3.3
C1   61.5361	55.2049	-3.3
C1   62.2246	56.4471	-3.3
C1   63.6447	56.472	-3.3
C1   64.3332	57.7142	-3.3
C1   65.7533	57.739	-3.3
C1   66.4418	58.9813	-3.3
C1   67.8619	59.0061	-3.3
C1   68.5504	60.2484	-3.3
C1   69.9704	60.2732	-3.3
C1   61.4931	57.6645	-3.3
C1   62.1816	58.9067	-3.3
C1   63.6017	58.9316	-3.3
C1   64.2902	60.1738	-3.3
C1   65.7103	60.1987	-3.3
C1   56.2862	30.5093	-3.3
C1   57.7063	30.5341	-3.3
C1   58.3948	31.7763	-3.3
C1   59.8148	31.8012	-3.3
C1   60.5033	33.0434	-3.3
C2   57.362	30.9813	0.0
C2   58.7821	30.9565	0.0
C2   59.5136	32.1739	0.0
C2   63.5586	60.3974	0.0
C2   61.364	56.7453	0.0
C2   62.0955	57.9626	0.0
C2   63.5156	57.9378	0.0
C2   64.2472	59.1552	0.0
C2   65.6672	59.1303	0.0
C2   66.3988	60.3477	0.0
C2   67.8188	60.3229	0.0
C2   59.1693	53.0931	0.0
C2   59.9009	54.3105	0.0
C2   61.321	54.2856	0.0
C2   62.0525	55.503	0.0
C2   63.4726	55.4782	0.0
C2   64.2041	56.6956	0.0
C2   65.6242	56.6707	0.0
C2   66.3557	57.8881	0.0
C2   67.7758	57.8633	0.0
C2   68.5073	59.0807	0.0
C2   69.9274	59.0558	0.0
C2   70.659	60.2732	0.0
C2   72.079	60.2484	0.0
C2   56.9747	49.4409	0.0
C2   57.7063	50.6583	0.0
C2   59.1263	50.6335	0.0
C2   59.8579	51.8509	0.0
C2   61.2779	51.826	0.0
C2   62.0095	53.0434	0.0
C2   63.4295	53.0186	0.0
C2   64.1611	54.2359	0.0
C2   65.5812	54.2111	0.0
C2   66.3127	55.4285	0.0
C2   67.7328	55.4036	0.0
C2   68.4643	56.621	0.0
C2   69.8844	56.5962	0.0
C2   70.6159	57.8136	0.0
C2   72.036	57.7887	0.0
C2   72.7675	59.0061	0.0
C2   74.1876	58.9813	0.0
C2   74.9192	60.1987	0.0
C2   76.3392	60.1738	0.0
C2   54.7801	45.7888	0.0
C2   55.5116	47.0061	0.0
C2   56.9317	46.9813	0.0
C2   57.6632	48.1987	0.0
C2   59.0833	48.1738	0.0
C2   59.8148	49.3912	0.0
C2   61.2349	49.3664	0.0
C2   61.9664	50.5838	0.0
C2   63.3865	50.5589	0.0
C2   64.1181	51.7763	0.0
C2   65.5381	51.7515	0.0
C2   66.2697	52.9689	0.0
C2   67.6897	52.944	0.0
C2   68.4213	54.1614	0.0
C2   69.8413	54.1366	0.0
C2   70.5729	55.354	0.0
C2   71.993	55.3291	0.0
C2   72.7245	56.5465	0.0
C2   74.1446	56.5217	0.0
C2   74.8761	57.739	0.0
C2   52.5854	42.1366	0.0
C2   53.317	43.354	0.0
C2   54.737	43.3291	0.0
C2   55.4686	44.5465	0.0
C2   56.8886	44.5217	0.0
C2   57.6202	45.7391	0.0
C2   59.0403	45.7142	0.0
C2   59.7718	46.9316	0.0
C2   61.1919	46.9068	0.0
C2   61.9234	48.1242	0.0
C2   63.3435	48.0993	0.0
C2   64.075	49.3167	0.0
C2   65.4951	49.2919	0.0
C2   66.2266	50.5092	0.0
C2   67.6467	50.4844	0.0
C2   68.3782	51.7018	0.0
C2   69.7983	51.6769	0.0
C2   70.5299	52.8943	0.0
C2   71.9499	52.8695	0.0
C2   72.6815	54.0869	0.0
C2   50.3908	38.4844	0.0
C2   51.1223	39.7018	0.0
C2   52.5424	39.677	0.0
C2   53.2739	40.8943	0.0
C2   54.694	40.8695	0.0
C2   55.4255	42.0869	0.0
C2   56.8456	42.062	0.0
C2   57.5772	43.2794	0.0
C2   58.9972	43.2546	0.0
C2   59.7288	44.472	0.0
C2   61.1488	44.4471	0.0
C2   61.8804	45.6645	0.0
C2   63.3004	45.6397	0.0
C2   64.032	46.8571	0.0
C2   65.4521	46.8322	0.0
C2   66.1836	48.0496	0.0
C2   67.6037	48.0248	0.0
C2   68.3352	49.2422	0.0
C2   69.7553	49.2173	0.0
C2   70.4868	50.4347	0.0
C2   50.3477	36.0248	0.0
C2   51.0793	37.2422	0.0
C2   52.4993	37.2173	0.0
C2   53.2309	38.4347	0.0
C2   54.651	38.4099	0.0
C2   55.3825	39.6273	0.0
C2   56.8026	39.6024	0.0
C2   57.5341	40.8198	0.0
C2   58.9542	40.795	0.0
C2   59.6857	42.0124	0.0
C2   61.1058	41.9875	0.0
C2   61.8373	43.2049	0.0
C2   63.2574	43.1801	0.0
C2   63.989	44.3974	0.0
C2   65.409	44.3726	0.0
C2   66.1406	45.59	0.0
C2   67.5606	45.5651	0.0
C2   68.2922	46.7825	0.0
C2   48.1531	32.3726	0.0
C2   48.8846	33.59	0.0
C2   50.3047	33.5652	0.0
C2   51.0363	34.7826	0.0
C2   52.4563	34.7577	0.0
C2   53.1879	35.9751	0.0
C2   54.6079	35.9503	0.0
C2   55.3395	37.1676	0.0
C2   56.7595	37.1428	0.0
C2   57.4911	38.3602	0.0
C2   58.9112	38.3353	0.0
C2   59.6427	39.5527	0.0
C2   61.0628	39.5279	0.0
C2   61.7943	40.7453	0.0
C2   63.2144	40.7204	0.0
C2   63.9459	41.9378	0.0
C2   65.366	41.913	0.0
C2   66.0975	43.1304	0.0
C2   48.8416	31.1304	0.0
C2   50.2617	31.1055	0.0
C2   50.9932	32.3229	0.0
C2   52.4133	32.2981	0.0
C2   53.1448	33.5155	0.0
C2   54.5649	33.4906	0.0
C2   55.2964	34.708	0.0
C2   56.7165	34.6832	0.0
C2   57.4481	35.9006	0.0
C2   58.8681	35.8757	0.0
C2   59.5997	37.0931	0.0
C2   61.0197	37.0683	0.0
C2   61.7513	38.2857	0.0
C2   63.1713	38.2608	0.0
C2   63.9029	39.4782	0.0
C2   53.1018	31.0559	0.0
C2   54.5219	31.031	0.0
C2   55.2534	32.2484	0.0
C2   56.6735	32.2236	0.0
C2   57.405	33.4409	0.0
C2   58.8251	33.4161	0.0
C2   59.5566	34.6335	0.0
C2   60.9767	34.6086	0.0
C2   61.7083	35.826	0.0
C1   56.8026	0.993787	-3.3
C1   52.5424	0.919253	-3.3
C1   53.9624	0.944098	-3.3
C1   54.651	2.18633	-3.3
C1   56.071	2.21118	-3.3
C1   56.7595	3.45341	-3.3
C1   58.1796	3.47826	-3.3
C1   58.8681	4.72049	-3.3
C1   48.2822	0.844719	-3.3
C1   49.7023	0.869564	-3.3
C1   50.3908	2.1118	-3.3
C1   51.8108	2.13664	-3.3
C1   52.4993	3.37888	-3.3
C1   53.9194	3.40372	-3.3
C1   54.6079	4.64596	-3.3
C1   56.028	4.6708	-3.3
C1   56.7165	5.91303	-3.3
C1   58.1366	5.93788	-3.3
C1   58.8251	7.18011	-3.3
C1   60.2452	7.20496	-3.3
C1   60.9337	8.44719	-3.3
C1   44.022	0.770185	-3.3
C1   45.4421	0.79503	-3.3
C1   46.1306	2.03726	-3.3
C1   47.5506	2.06211	-3.3
C1   48.2392	3.30434	-3.3
C1   49.6592	3.32919	-3.3
C1   50.3477	4.57142	-3.3
C1   51.7678	4.59627	-3.3
C1   52.4563	5.8385	-3.3
C1   53.8764	5.86335	-3.3
C1   54.5649	7.10558	-3.3
C1   55.985	7.13042	-3.3
C1   56.6735	8.37266	-3.3
C1   58.0935	8.3975	-3.3
C1   58.7821	9.63974	-3.3
C1   60.2021	9.66458	-3.3
C1   60.8906	10.9068	-3.3
C1   62.3107	10.9317	-3.3
C1   62.9992	12.1739	-3.3
C1   45.399	3.25465	-3.3
C1   46.0875	4.49689	-3.3
C1   47.5076	4.52173	-3.3
C1   48.1961	5.76397	-3.3
C1   49.6162	5.78881	-3.3
C1   50.3047	7.03105	-3.3
C1   51.7248	7.05589	-3.3
C1   52.4133	8.29812	-3.3
C1   53.8333	8.32297	-3.3
C1   54.5219	9.5652	-3.3
C1   55.9419	9.59005	-3.3
C1   56.6304	10.8323	-3.3
C1   58.0505	10.8571	-3.3
C1   58.739	12.0994	-3.3
C1   60.1591	12.1242	-3.3
C1   60.8476	13.3664	-3.3
C1   62.2677	13.3913	-3.3
C1   62.9562	14.6335	-3.3
C1   64.3763	14.6584	-3.3
C1   65.0648	15.9006	-3.3
C1   47.4646	6.98136	-3.3
C1   48.1531	8.22359	-3.3
C1   49.5732	8.24843	-3.3
C1   50.2617	9.49067	-3.3
C1   51.6817	9.51551	-3.3
C1   52.3703	10.7577	-3.3
C1   53.7903	10.7826	-3.3
C1   54.4788	12.0248	-3.3
C1   55.8989	12.0497	-3.3
C1   56.5874	13.2919	-3.3
C1   58.0075	13.3167	-3.3
C1   58.696	14.559	-3.3
C1   60.1161	14.5838	-3.3
C1   60.8046	15.8261	-3.3
C1   62.2246	15.8509	-3.3
C1   62.9132	17.0931	-3.3
C1   64.3332	17.118	-3.3
C1   65.0217	18.3602	-3.3
C1   66.4418	18.3851	-3.3
C1   67.1303	19.6273	-3.3
C1   49.5301	10.7081	-3.3
C1   50.2186	11.9503	-3.3
C1   51.6387	11.9751	-3.3
C1   52.3272	13.2174	-3.3
C1   53.7473	13.2422	-3.3
C1   54.4358	14.4845	-3.3
C1   55.8559	14.5093	-3.3
C1   56.5444	15.7515	-3.3
C1   57.9644	15.7764	-3.3
C1   58.653	17.0186	-3.3
C1   60.073	17.0435	-3.3
C1   60.7615	18.2857	-3.3
C1   62.1816	18.3105	-3.3
C1   62.8701	19.5528	-3.3
C1   64.2902	19.5776	-3.3
C1   64.9787	20.8198	-3.3
C1   66.3988	20.8447	-3.3
C1   67.0873	22.0869	-3.3
C1   68.5073	22.1118	-3.3
C1   69.1959	23.354	-3.3
C1   51.5957	14.4348	-3.3
C1   52.2842	15.677	-3.3
C1   53.7043	15.7018	-3.3
C1   54.3928	16.9441	-3.3
C1   55.8128	16.9689	-3.3
C1   56.5013	18.2112	-3.3
C1   57.9214	18.236	-3.3
C1   58.6099	19.4782	-3.3
C1   60.03	19.5031	-3.3
C1   60.7185	20.7453	-3.3
C1   62.1386	20.7702	-3.3
C1   62.8271	22.0124	-3.3
C1   64.2472	22.0372	-3.3
C1   64.9357	23.2795	-3.3
C1   66.3557	23.3043	-3.3
C1   67.0442	24.5465	-3.3
C1   68.4643	24.5714	-3.3
C1   69.1528	25.8136	-3.3
C1   70.5729	25.8385	-3.3
C1   71.2614	27.0807	-3.3
C1   53.6612	18.1615	-3.3
C1   54.3497	19.4037	-3.3
C1   55.7698	19.4285	-3.3
C1   56.4583	20.6708	-3.3
C1   57.8784	20.6956	-3.3
C1   58.5669	21.9379	-3.3
C1   59.987	21.9627	-3.3
C1   60.6755	23.2049	-3.3
C1   62.0955	23.2298	-3.3
C1   62.7841	24.472	-3.3
C1   64.2041	24.4969	-3.3
C1   64.8926	25.7391	-3.3
C1   66.3127	25.7639	-3.3
C1   67.0012	27.0062	-3.3
C1   68.4213	27.031	-3.3
C1   69.1098	28.2732	-3.3
C1   70.5299	28.2981	-3.3
C1   71.2184	29.5403	-3.3
C1   72.6384	29.5652	-3.3
C1   55.7268	21.8882	-3.3
C1   56.4153	23.1304	-3.3
C1   57.8353	23.1552	-3.3
C1   58.5239	24.3975	-3.3
C1   59.9439	24.4223	-3.3
C1   60.6324	25.6646	-3.3
C1   62.0525	25.6894	-3.3
C1   62.741	26.9316	-3.3
C1   64.1611	26.9565	-3.3
C1   64.8496	28.1987	-3.3
C1   66.2697	28.2236	-3.3
C1   66.9582	29.4658	-3.3
C1   68.3782	29.4906	-3.3
C1   57.7923	25.6149	-3.3
C1   58.4808	26.8571	-3.3
C1   59.9009	26.8819	-3.3
C1   60.5894	28.1242	-3.3
C1   62.0095	28.149	-3.3
C1   62.698	29.3913	-3.3
C1   64.1181	29.4161	-3.3
C1   59.8579	29.3416	-3.3
C2   58.739	28.4969	0.0
C2   59.4706	29.7142	0.0
C2   60.8906	29.6894	0.0
C2   56.5444	24.8447	0.0
C2   57.2759	26.0621	0.0
C2   58.696	26.0372	0.0
C2   59.4275	27.2546	0.0
C2   60.8476	27.2298	0.0
C2   61.5792	28.4472	0.0
C2   62.9992	28.4223	0.0
C2   63.7308	29.6397	0.0
C2   65.1508	29.6149	0.0
C2   56.5013	22.3851	0.0
C2   57.2329	23.6024	0.0
C2   58.653	23.5776	0.0
C2   59.3845	24.795	0.0
C2   60.8046	24.7701	0.0
C2   61.5361	25.9875	0.0
C2   62.9562	25.9627	0.0
C2   63.6877	27.1801	0.0
C2   65.1078	27.1552	0.0
C2   65.8393	28.3726	0.0
C2   67.2594	28.3478	0.0
C2   67.991	29.5652	0.0
C2   69.411	29.5403	0.0
C2   54.3067	18.7329	0.0
C2   55.0383	19.9503	0.0
C2   56.4583	19.9254	0.0
C2   57.1899	21.1428	0.0
C2   58.6099	21.118	0.0
C2   59.3415	22.3354	0.0
C2   60.7615	22.3105	0.0
C2   61.4931	23.5279	0.0
C2   62.9132	23.5031	0.0
C2   63.6447	24.7205	0.0
C2   65.0648	24.6956	0.0
C2   65.7963	25.913	0.0
C2   67.2164	25.8882	0.0
C2   67.9479	27.1055	0.0
C2   69.368	27.0807	0.0
C2   70.0995	28.2981	0.0
C2   71.5196	28.2732	0.0
C2   72.2512	29.4906	0.0
C2   52.1121	15.0807	0.0
C2   52.8436	16.2981	0.0
C2   54.2637	16.2733	0.0
C2   54.9952	17.4907	0.0
C2   56.4153	17.4658	0.0
C2   57.1468	18.6832	0.0
C2   58.5669	18.6584	0.0
C2   59.2984	19.8757	0.0
C2   60.7185	19.8509	0.0
C2   61.4501	21.0683	0.0
C2   62.8701	21.0434	0.0
C2   63.6017	22.2608	0.0
C2   65.0217	22.236	0.0
C2   65.7533	23.4534	0.0
C2   67.1733	23.4285	0.0
C2   67.9049	24.6459	0.0
C2   69.325	24.6211	0.0
C2   70.0565	25.8385	0.0
C2   49.9174	11.4286	0.0
C2   50.649	12.6459	0.0
C2   52.069	12.6211	0.0
C2   52.8006	13.8385	0.0
C2   54.2206	13.8136	0.0
C2   54.9522	15.031	0.0
C2   56.3723	15.0062	0.0
C2   57.1038	16.2236	0.0
C2   58.5239	16.1987	0.0
C2   59.2554	17.4161	0.0
C2   60.6755	17.3913	0.0
C2   61.407	18.6087	0.0
C2   62.8271	18.5838	0.0
C2   63.5586	19.8012	0.0
C2   64.9787	19.7764	0.0
C2   65.7103	20.9938	0.0
C2   67.1303	20.9689	0.0
C2   67.8619	22.1863	0.0
C2   47.7228	7.77639	0.0
C2   48.4543	8.99378	0.0
C2   49.8744	8.96893	0.0
C2   50.6059	10.1863	0.0
C2   52.026	10.1615	0.0
C2   52.7575	11.3789	0.0
C2   54.1776	11.354	0.0
C2   54.9092	12.5714	0.0
C2   56.3292	12.5466	0.0
C2   57.0608	13.764	0.0
C2   58.4808	13.7391	0.0
C2   59.2124	14.9565	0.0
C2   60.6324	14.9317	0.0
C2   61.364	16.149	0.0
C2   62.7841	16.1242	0.0
C2   63.5156	17.3416	0.0
C2   64.9357	17.3167	0.0
C2   65.6672	18.5341	0.0
C2   45.5281	4.12422	0.0
C2   46.2597	5.34161	0.0
C2   47.6797	5.31676	0.0
C2   48.4113	6.53415	0.0
C2   49.8313	6.50931	0.0
C2   50.5629	7.7267	0.0
C2   51.983	7.70185	0.0
C2   52.7145	8.91924	0.0
C2   54.1346	8.8944	0.0
C2   54.8661	10.1118	0.0
C2   56.2862	10.0869	0.0
C2   57.0177	11.3043	0.0
C2   58.4378	11.2795	0.0
C2   59.1693	12.4969	0.0
C2   60.5894	12.472	0.0
C2   61.321	13.6894	0.0
C2   62.741	13.6646	0.0
C2   63.4726	14.882	0.0
C2   43.3335	0.472049	0.0
C2   44.065	1.68944	0.0
C2   45.4851	1.66459	0.0
C2   46.2166	2.88198	0.0
C2   47.6367	2.85714	0.0
C2   48.3683	4.07453	0.0
C2   49.7883	4.04968	0.0
C2   50.5199	5.26707	0.0
C2   51.9399	5.24223	0.0
C2   52.6715	6.45962	0.0
C2   54.0915	6.43477	0.0
C2   54.8231	7.65216	0.0
C2   56.2432	7.62732	0.0
C2   56.9747	8.84471	0.0
C2   58.3948	8.81986	0.0
C2   59.1263	10.0373	0.0
C2   60.5464	10.0124	0.0
C2   61.2779	11.2298	0.0
C2   62.698	11.205	0.0
C2   46.1736	0.42236	0.0
C2   47.5937	0.397515	0.0
C2   48.3252	1.6149	0.0
C2   49.7453	1.59006	0.0
C2   50.4768	2.80745	0.0
C2   51.8969	2.7826	0.0
C2   52.6284	3.99999	0.0
C2   54.0485	3.97515	0.0
C2   54.7801	5.19254	0.0
C2   56.2001	5.16769	0.0
C2   56.9317	6.38508	0.0
C2   58.3517	6.36024	0.0
C2   59.0833	7.57763	0.0
C2   60.5033	7.55278	0.0
C2   61.2349	8.77017	0.0
C2   50.4338	0.347826	0.0
C2   51.8539	0.322981	0.0
C2   52.5854	1.54037	0.0
C2   54.0055	1.51553	0.0
C2   54.737	2.73292	0.0
C2   56.1571	2.70807	0.0
C2   56.8886	3.92546	0.0
C2   58.3087	3.90062	0.0
C2   59.0403	5.118	0.0
C2   54.694	0.273292	0.0
C2   56.1141	0.248447	0.0
C2   56.8456	1.46584	0.0
C1   63.989	36.795	-3.3
C1   64.6775	38.0372	-3.3
C1   66.0975	38.0621	-3.3
C1   66.7861	39.3043	-3.3
C1   68.2061	39.3291	-3.3
C1   68.8946	40.5714	-3.3
C1   70.3147	40.5962	-3.3
C1   71.0032	41.8384	-3.3
C1   72.4233	41.8633	-3.3
C1   73.1118	43.1055	-3.3
C1   74.5319	43.1304	-3.3
C1   75.2204	44.3726	-3.3
C1   76.6404	44.3974	-3.3
C1   77.329	45.6397	-3.3
C1   78.749	45.6645	-3.3
C1   79.4375	46.9068	-3.3
C1   80.8576	46.9316	-3.3
C1   81.5461	48.1738	-3.3
C1   82.9662	48.1987	-3.3
C1   83.6547	49.4409	-3.3
C1   66.0545	40.5217	-3.3
C1   66.743	41.7639	-3.3
C1   68.1631	41.7888	-3.3
C1   68.8516	43.031	-3.3
C1   70.2717	43.0558	-3.3
C1   70.9602	44.2981	-3.3
C1   72.3802	44.3229	-3.3
C1   73.0688	45.5651	-3.3
C1   74.4888	45.59	-3.3
C1   75.1773	46.8322	-3.3
C1   76.5974	46.8571	-3.3
C1   77.2859	48.0993	-3.3
C1   78.706	48.1242	-3.3
C1   79.3945	49.3664	-3.3
C1   80.8146	49.3912	-3.3
C1   81.5031	50.6335	-3.3
C1   82.9232	50.6583	-3.3
C1   83.6117	51.9005	-3.3
C1   85.0317	51.9254	-3.3
C1   85.7202	53.1676	-3.3
C1   68.1201	44.2484	-3.3
C1   68.8086	45.4906	-3.3
C1   70.2286	45.5155	-3.3
C1   70.9172	46.7577	-3.3
C1   72.3372	46.7825	-3.3
C1   73.0257	48.0248	-3.3
C1   74.4458	48.0496	-3.3
C1   75.1343	49.2919	-3.3
C1   76.5544	49.3167	-3.3
C1   77.2429	50.5589	-3.3
C1   78.663	50.5838	-3.3
C1   79.3515	51.826	-3.3
C1   80.7715	51.8509	-3.3
C1   81.4601	53.0931	-3.3
C1   82.8801	53.1179	-3.3
C1   83.5686	54.3602	-3.3
C1   84.9887	54.385	-3.3
C1   85.6772	55.6272	-3.3
C1   87.0973	55.6521	-3.3
C1   87.7858	56.8943	-3.3
C1   70.1856	47.9751	-3.3
C1   70.8741	49.2173	-3.3
C1   72.2942	49.2422	-3.3
C1   72.9827	50.4844	-3.3
C1   74.4028	50.5092	-3.3
C1   75.0913	51.7515	-3.3
C1   76.5113	51.7763	-3.3
C1   77.1999	53.0186	-3.3
C1   78.6199	53.0434	-3.3
C1   79.3084	54.2856	-3.3
C1   80.7285	54.3105	-3.3
C1   81.417	55.5527	-3.3
C1   82.8371	55.5776	-3.3
C1   83.5256	56.8198	-3.3
C1   84.9457	56.8446	-3.3
C1   85.6342	58.0869	-3.3
C1   87.0542	58.1117	-3.3
C1   87.7428	59.3539	-3.3
C1   89.1628	59.3788	-3.3
C1   89.8513	60.621	-3.3
C1   72.2512	51.7018	-3.3
C1   72.9397	52.944	-3.3
C1   74.3597	52.9689	-3.3
C1   75.0482	54.2111	-3.3
C1   76.4683	54.2359	-3.3
C1   77.1568	55.4782	-3.3
C1   78.5769	55.503	-3.3
C1   79.2654	56.7453	-3.3
C1   80.6855	56.7701	-3.3
C1   81.374	58.0123	-3.3
C1   82.7941	58.0372	-3.3
C1   83.4826	59.2794	-3.3
C1   84.9026	59.3043	-3.3
C1   85.5912	60.5465	-3.3
C1   87.0112	60.5713	-3.3
C1   74.3167	55.4285	-3.3
C1   75.0052	56.6707	-3.3
C1   76.4253	56.6956	-3.3
C1   77.1138	57.9378	-3.3
C1   78.5339	57.9626	-3.3
C1   79.2224	59.2049	-3.3
C1   80.6424	59.2297	-3.3
C1   81.331	60.472	-3.3
C1   82.751	60.4968	-3.3
C1   76.3822	59.1552	-3.3
C1   77.0708	60.3974	-3.3
C1   78.4908	60.4223	-3.3
C1   73.327	30.8074	-3.3
C1   69.0668	30.7329	-3.3
C1   70.4868	30.7577	-3.3
C1   71.1753	32	-3.3
C1   72.5954	32.0248	-3.3
C1   73.2839	33.267	-3.3
C1   74.704	33.2919	-3.3
C1   75.3925	34.5341	-3.3
C1   64.8066	30.6583	-3.3
C1   66.2266	30.6832	-3.3
C1   66.9152	31.9254	-3.3
C1   68.3352	31.9503	-3.3
C1   69.0237	33.1925	-3.3
C1   70.4438	33.2173	-3.3
C1   71.1323	34.4596	-3.3
C1   72.5524	34.4844	-3.3
C1   73.2409	35.7267	-3.3
C1   74.661	35.7515	-3.3
C1   75.3495	36.9937	-3.3
C1   76.7695	37.0186	-3.3
C1   77.4581	38.2608	-3.3
C1   60.5464	30.5838	-3.3
C1   61.9664	30.6086	-3.3
C1   62.655	31.8509	-3.3
C1   64.075	31.8757	-3.3
C1   64.7635	33.118	-3.3
C1   66.1836	33.1428	-3.3
C1   66.8721	34.385	-3.3
C1   68.2922	34.4099	-3.3
C1   68.9807	35.6521	-3.3
C1   70.4008	35.677	-3.3
C1   71.0893	36.9192	-3.3
C1   72.5093	36.944	-3.3
C1   73.1979	38.1863	-3.3
C1   74.6179	38.2111	-3.3
C1   75.3064	39.4534	-3.3
C1   76.7265	39.4782	-3.3
C1   77.415	40.7204	-3.3
C1   78.8351	40.7453	-3.3
C1   79.5236	41.9875	-3.3
C1   61.9234	33.0683	-3.3
C1   62.6119	34.3105	-3.3
C1   64.032	34.3354	-3.3
C1   64.7205	35.5776	-3.3
C1   66.1406	35.6024	-3.3
C1   66.8291	36.8447	-3.3
C1   68.2492	36.8695	-3.3
C1   68.9377	38.1117	-3.3
C1   70.3577	38.1366	-3.3
C1   71.0462	39.3788	-3.3
C1   72.4663	39.4037	-3.3
C1   73.1548	40.6459	-3.3
C1   74.5749	40.6707	-3.3
C1   75.2634	41.913	-3.3
C1   76.6835	41.9378	-3.3
C1   77.372	43.1801	-3.3
C1   78.7921	43.2049	-3.3
C1   79.4806	44.4471	-3.3
C1   80.9006	44.472	-3.3
C1   81.5892	45.7142	-3.3
C2   60.9337	32.149	0.0
C2   61.6652	33.3664	0.0
C2   63.0853	33.3416	0.0
C2   63.8168	34.559	0.0
C2   65.2369	34.5341	0.0
C2   65.9684	35.7515	0.0
C2   67.3885	35.7267	0.0
C2   68.1201	36.944	0.0
C2   69.5401	36.9192	0.0
C2   70.2717	38.1366	0.0
C2   71.6917	38.1117	0.0
C2   72.4233	39.3291	0.0
C2   73.8433	39.3043	0.0
C2   74.5749	40.5217	0.0
C2   75.995	40.4968	0.0
C2   76.7265	41.7142	0.0
C2   78.1466	41.6894	0.0
C2   78.8781	42.9068	0.0
C2   80.2982	42.8819	0.0
C2   81.0297	44.0993	0.0
C2   61.6222	30.9068	0.0
C2   63.0423	30.8819	0.0
C2   63.7738	32.0993	0.0
C2   65.1939	32.0745	0.0
C2   65.9254	33.2919	0.0
C2   67.3455	33.267	0.0
C2   68.077	34.4844	0.0
C2   69.4971	34.4596	0.0
C2   70.2286	35.677	0.0
C2   71.6487	35.6521	0.0
C2   72.3802	36.8695	0.0
C2   73.8003	36.8447	0.0
C2   74.5319	38.0621	0.0
C2   75.9519	38.0372	0.0
C2   76.6835	39.2546	0.0
C2   78.1035	39.2298	0.0
C2   78.8351	40.4471	0.0
C2   65.8824	30.8323	0.0
C2   67.3024	30.8074	0.0
C2   68.034	32.0248	0.0
C2   69.4541	32	0.0
C2   70.1856	33.2173	0.0
C2   71.6057	33.1925	0.0
C2   72.3372	34.4099	0.0
C2   73.7573	34.385	0.0
C2   74.4888	35.6024	0.0
C2   75.9089	35.5776	0.0
C2   76.6404	36.795	0.0
C2   70.1426	30.7577	0.0
C2   71.5626	30.7329	0.0
C2   72.2942	31.9503	0.0
C2   73.7142	31.9254	0.0
C2   74.4458	33.1428	0.0
C2   76.2962	57.7142	0.0
C2   77.0277	58.9316	0.0
C2   78.4478	58.9067	0.0
C2   79.1793	60.1241	0.0
C2   80.5994	60.0993	0.0
C2   74.1015	54.062	0.0
C2   74.8331	55.2794	0.0
C2   76.2532	55.2546	0.0
C2   76.9847	56.472	0.0
C2   78.4048	56.4471	0.0
C2   79.1363	57.6645	0.0
C2   80.5564	57.6397	0.0
C2   81.2879	58.8571	0.0
C2   82.708	58.8322	0.0
C2   83.4395	60.0496	0.0
C2   84.8596	60.0248	0.0
C2   71.9069	50.4099	0.0
C2   72.6384	51.6273	0.0
C2   74.0585	51.6024	0.0
C2   74.7901	52.8198	0.0
C2   76.2101	52.795	0.0
C2   76.9417	54.0123	0.0
C2   78.3617	53.9875	0.0
C2   79.0933	55.2049	0.0
C2   80.5133	55.18	0.0
C2   81.2449	56.3974	0.0
C2   82.665	56.3726	0.0
C2   83.3965	57.59	0.0
C2   84.8166	57.5651	0.0
C2   85.5481	58.7825	0.0
C2   86.9682	58.7577	0.0
C2   87.6997	59.9751	0.0
C2   89.1198	59.9502	0.0
C2   69.7122	46.7577	0.0
C2   70.4438	47.9751	0.0
C2   71.8639	47.9502	0.0
C2   72.5954	49.1676	0.0
C2   74.0155	49.1428	0.0
C2   74.747	50.3602	0.0
C2   76.1671	50.3353	0.0
C2   76.8986	51.5527	0.0
C2   78.3187	51.5279	0.0
C2   79.0502	52.7453	0.0
C2   80.4703	52.7204	0.0
C2   81.2019	53.9378	0.0
C2   82.6219	53.913	0.0
C2   83.3535	55.1304	0.0
C2   84.7735	55.1055	0.0
C2   85.5051	56.3229	0.0
C2   86.9252	56.2981	0.0
C2   87.6567	57.5154	0.0
C2   89.0768	57.4906	0.0
C2   89.8083	58.708	0.0
C2   67.5176	43.1055	0.0
C2   68.2492	44.3229	0.0
C2   69.6692	44.2981	0.0
C2   70.4008	45.5155	0.0
C2   71.8208	45.4906	0.0
C2   72.5524	46.708	0.0
C2   73.9724	46.6832	0.0
C2   74.704	47.9005	0.0
C2   76.1241	47.8757	0.0
C2   76.8556	49.0931	0.0
C2   78.2757	49.0682	0.0
C2   79.0072	50.2856	0.0
C2   80.4273	50.2608	0.0
C2   81.1588	51.4782	0.0
C2   82.5789	51.4533	0.0
C2   83.3104	52.6707	0.0
C2   84.7305	52.6459	0.0
C2   85.4621	53.8633	0.0
C2   86.8821	53.8384	0.0
C2   87.6137	55.0558	0.0
C2   65.323	39.4534	0.0
C2   66.0545	40.6707	0.0
C2   67.4746	40.6459	0.0
C2   68.2061	41.8633	0.0
C2   69.6262	41.8384	0.0
C2   70.3577	43.0558	0.0
C2   71.7778	43.031	0.0
C2   72.5093	44.2484	0.0
C2   73.9294	44.2235	0.0
C2   74.661	45.4409	0.0
C2   76.081	45.4161	0.0
C2   76.8126	46.6335	0.0
C2   78.2326	46.6086	0.0
C2   78.9642	47.826	0.0
C2   80.3842	47.8012	0.0
C2   81.1158	49.0186	0.0
C2   82.5359	48.9937	0.0
C2   83.2674	50.2111	0.0
C2   84.6875	50.1863	0.0
C2   85.419	51.4036	0.0
C2   63.1283	35.8012	0.0
C2   63.8599	37.0186	0.0
C2   65.2799	36.9937	0.0
C2   66.0115	38.2111	0.0
C2   67.4315	38.1863	0.0
C2   68.1631	39.4037	0.0
C2   69.5832	39.3788	0.0
C2   70.3147	40.5962	0.0
C2   71.7348	40.5714	0.0
C2   72.4663	41.7888	0.0
C2   73.8864	41.7639	0.0
C2   74.6179	42.9813	0.0
C2   76.038	42.9565	0.0
C2   76.7695	44.1738	0.0
C2   78.1896	44.149	0.0
C2   78.9212	45.3664	0.0
C2   80.3412	45.3415	0.0
C2   81.0728	46.5589	0.0
C2   82.4928	46.5341	0.0
C2   83.2244	47.7515	0.0
C1   69.5832	1.21739	-3.3
C1   71.0032	1.24223	-3.3
C1   71.6917	2.48447	-3.3
C1   65.323	1.14286	-3.3
C1   66.743	1.1677	-3.3
C1   67.4315	2.40993	-3.3
C1   68.8516	2.43478	-3.3
C1   69.5401	3.67701	-3.3
C1   70.9602	3.70186	-3.3
C1   71.6487	4.94409	-3.3
C1   73.0688	4.96894	-3.3
C1   73.7573	6.21117	-3.3
C1   61.0628	1.06832	-3.3
C1   62.4828	1.09317	-3.3
C1   63.1713	2.3354	-3.3
C1   64.5914	2.36024	-3.3
C1   65.2799	3.60248	-3.3
C1   66.7	3.62732	-3.3
C1   67.3885	4.86956	-3.3
C1   68.8086	4.8944	-3.3
C1   69.4971	6.13664	-3.3
C1   70.9172	6.16148	-3.3
C1   71.6057	7.40372	-3.3
C1   73.0257	7.42856	-3.3
C1   73.7142	8.67079	-3.3
C1   75.1343	8.69564	-3.3
C1   75.8228	9.93787	-3.3
C1   58.2226	1.01863	-3.3
C1   58.9112	2.26087	-3.3
C1   60.3312	2.28571	-3.3
C1   61.0197	3.52794	-3.3
C1   62.4398	3.55279	-3.3
C1   63.1283	4.79502	-3.3
C1   64.5484	4.81987	-3.3
C1   65.2369	6.0621	-3.3
C1   66.657	6.08695	-3.3
C1   67.3455	7.32918	-3.3
C1   68.7655	7.35403	-3.3
C1   69.4541	8.59626	-3.3
C1   70.8741	8.6211	-3.3
C1   71.5626	9.86334	-3.3
C1   72.9827	9.88818	-3.3
C1   73.6712	11.1304	-3.3
C1   75.0913	11.1553	-3.3
C1   75.7798	12.3975	-3.3
C1   77.1999	12.4223	-3.3
C1   77.8884	13.6646	-3.3
C1   60.2882	4.74533	-3.3
C1   60.9767	5.98757	-3.3
C1   62.3968	6.01241	-3.3
C1   63.0853	7.25465	-3.3
C1   64.5053	7.27949	-3.3
C1   65.1939	8.52173	-3.3
C1   66.6139	8.54657	-3.3
C1   67.3024	9.78881	-3.3
C1   68.7225	9.81365	-3.3
C1   69.411	11.0559	-3.3
C1   70.8311	11.0807	-3.3
C1   71.5196	12.323	-3.3
C1   72.9397	12.3478	-3.3
C1   73.6282	13.59	-3.3
C1   75.0482	13.6149	-3.3
C1   75.7368	14.8571	-3.3
C1   77.1568	14.882	-3.3
C1   77.8453	16.1242	-3.3
C1   79.2654	16.149	-3.3
C1   79.9539	17.3913	-3.3
C1   62.3537	8.47204	-3.3
C1   63.0423	9.71427	-3.3
C1   64.4623	9.73912	-3.3
C1   65.1508	10.9813	-3.3
C1   66.5709	11.0062	-3.3
C1   67.2594	12.2484	-3.3
C1   68.6795	12.2733	-3.3
C1   69.368	13.5155	-3.3
C1   70.7881	13.5404	-3.3
C1   71.4766	14.7826	-3.3
C1   72.8966	14.8074	-3.3
C1   73.5852	16.0497	-3.3
C1   75.0052	16.0745	-3.3
C1   75.6937	17.3167	-3.3
C1   77.1138	17.3416	-3.3
C1   77.8023	18.5838	-3.3
C1   79.2224	18.6087	-3.3
C1   79.9109	19.8509	-3.3
C1   81.331	19.8757	-3.3
C1   82.0195	21.118	-3.3
C1   64.4193	12.1987	-3.3
C1   65.1078	13.441	-3.3
C1   66.5279	13.4658	-3.3
C1   67.2164	14.7081	-3.3
C1   68.6364	14.7329	-3.3
C1   69.325	15.9751	-3.3
C1   70.745	16	-3.3
C1   71.4335	17.2422	-3.3
C1   72.8536	17.2671	-3.3
C1   73.5421	18.5093	-3.3
C1   74.9622	18.5341	-3.3
C1   75.6507	19.7764	-3.3
C1   77.0708	19.8012	-3.3
C1   77.7593	21.0434	-3.3
C1   79.1793	21.0683	-3.3
C1   79.8679	22.3105	-3.3
C1   81.2879	22.3354	-3.3
C1   81.9764	23.5776	-3.3
C1   83.3965	23.6024	-3.3
C1   84.085	24.8447	-3.3
C1   66.4848	15.9254	-3.3
C1   67.1733	17.1677	-3.3
C1   68.5934	17.1925	-3.3
C1   69.2819	18.4348	-3.3
C1   70.702	18.4596	-3.3
C1   71.3905	19.7018	-3.3
C1   72.8106	19.7267	-3.3
C1   73.4991	20.9689	-3.3
C1   74.9192	20.9938	-3.3
C1   75.6077	22.236	-3.3
C1   77.0277	22.2608	-3.3
C1   77.7162	23.5031	-3.3
C1   79.1363	23.5279	-3.3
C1   79.8248	24.7701	-3.3
C1   81.2449	24.795	-3.3
C1   81.9334	26.0372	-3.3
C1   83.3535	26.0621	-3.3
C1   84.042	27.3043	-3.3
C1   85.4621	27.3292	-3.3
C1   86.1506	28.5714	-3.3
C1   68.5504	19.6521	-3.3
C1   69.2389	20.8944	-3.3
C1   70.659	20.9192	-3.3
C1   71.3475	22.1615	-3.3
C1   72.7675	22.1863	-3.3
C1   73.4561	23.4285	-3.3
C1   74.8761	23.4534	-3.3
C1   75.5646	24.6956	-3.3
C1   76.9847	24.7205	-3.3
C1   77.6732	25.9627	-3.3
C1   79.0933	25.9875	-3.3
C1   79.7818	27.2298	-3.3
C1   81.2019	27.2546	-3.3
C1   81.8904	28.4969	-3.3
C1   83.3104	28.5217	-3.3
C1   83.999	29.7639	-3.3
C1   85.419	29.7888	-3.3
C1   70.6159	23.3788	-3.3
C1   71.3044	24.6211	-3.3
C1   72.7245	24.6459	-3.3
C1   73.413	25.8882	-3.3
C1   74.8331	25.913	-3.3
C1   75.5216	27.1552	-3.3
C1   76.9417	27.1801	-3.3
C1   77.6302	28.4223	-3.3
C1   79.0502	28.4472	-3.3
C1   79.7388	29.6894	-3.3
C1   81.1588	29.7142	-3.3
C1   72.6815	27.1055	-3.3
C1   73.37	28.3478	-3.3
C1   74.7901	28.3726	-3.3
C1   75.4786	29.6149	-3.3
C1   76.8986	29.6397	-3.3
C2   73.6712	29.4658	0.0
C2   71.4766	25.8136	0.0
C2   72.2081	27.031	0.0
C2   73.6282	27.0062	0.0
C2   74.3597	28.2236	0.0
C2   75.7798	28.1987	0.0
C2   76.5113	29.4161	0.0
C2   77.9314	29.3913	0.0
C2   69.2819	22.1615	0.0
C2   70.0135	23.3788	0.0
C2   71.4335	23.354	0.0
C2   72.1651	24.5714	0.0
C2   73.5852	24.5465	0.0
C2   74.3167	25.7639	0.0
C2   75.7368	25.7391	0.0
C2   76.4683	26.9565	0.0
C2   77.8884	26.9316	0.0
C2   78.6199	28.149	0.0
C2   80.04	28.1242	0.0
C2   80.7715	29.3416	0.0
C2   82.1916	29.3167	0.0
C2   67.0873	18.5093	0.0
C2   67.8188	19.7267	0.0
C2   69.2389	19.7018	0.0
C2   69.9704	20.9192	0.0
C2   71.3905	20.8944	0.0
C2   72.1221	22.1118	0.0
C2   73.5421	22.0869	0.0
C2   74.2737	23.3043	0.0
C2   75.6937	23.2795	0.0
C2   76.4253	24.4969	0.0
C2   77.8453	24.472	0.0
C2   78.5769	25.6894	0.0
C2   79.997	25.6646	0.0
C2   80.7285	26.8819	0.0
C2   82.1486	26.8571	0.0
C2   82.8801	28.0745	0.0
C2   84.3002	28.0496	0.0
C2   85.0317	29.267	0.0
C2   86.4518	29.2422	0.0
C2   64.8926	14.8571	0.0
C2   65.6242	16.0745	0.0
C2   67.0442	16.0497	0.0
C2   67.7758	17.2671	0.0
C2   69.1959	17.2422	0.0
C2   69.9274	18.4596	0.0
C2   71.3475	18.4348	0.0
C2   72.079	19.6521	0.0
C2   73.4991	19.6273	0.0
C2   74.2306	20.8447	0.0
C2   75.6507	20.8198	0.0
C2   76.3822	22.0372	0.0
C2   77.8023	22.0124	0.0
C2   78.5339	23.2298	0.0
C2   79.9539	23.2049	0.0
C2   80.6855	24.4223	0.0
C2   82.1055	24.3975	0.0
C2   82.8371	25.6149	0.0
C2   84.2572	25.59	0.0
C2   84.9887	26.8074	0.0
C2   63.4295	12.4223	0.0
C2   64.8496	12.3975	0.0
C2   65.5812	13.6149	0.0
C2   67.0012	13.59	0.0
C2   67.7328	14.8074	0.0
C2   69.1528	14.7826	0.0
C2   69.8844	16	0.0
C2   71.3044	15.9751	0.0
C2   72.036	17.1925	0.0
C2   73.4561	17.1677	0.0
C2   74.1876	18.3851	0.0
C2   75.6077	18.3602	0.0
C2   76.3392	19.5776	0.0
C2   77.7593	19.5528	0.0
C2   78.4908	20.7702	0.0
C2   79.9109	20.7453	0.0
C2   80.6424	21.9627	0.0
C2   82.0625	21.9379	0.0
C2   82.7941	23.1552	0.0
C2   62.655	8.74533	0.0
C2   63.3865	9.96272	0.0
C2   64.8066	9.93787	0.0
C2   65.5381	11.1553	0.0
C2   66.9582	11.1304	0.0
C2   67.6897	12.3478	0.0
C2   69.1098	12.323	0.0
C2   69.8413	13.5404	0.0
C2   71.2614	13.5155	0.0
C2   71.993	14.7329	0.0
C2   73.413	14.7081	0.0
C2   74.1446	15.9254	0.0
C2   75.5646	15.9006	0.0
C2   76.2962	17.118	0.0
C2   77.7162	17.0931	0.0
C2   78.4478	18.3105	0.0
C2   79.8679	18.2857	0.0
C2   80.5994	19.5031	0.0
C2   60.4603	5.09316	0.0
C2   61.1919	6.31055	0.0
C2   62.6119	6.2857	0.0
C2   63.3435	7.50309	0.0
C2   64.7635	7.47825	0.0
C2   65.4951	8.69564	0.0
C2   66.9152	8.67079	0.0
C2   67.6467	9.88818	0.0
C2   69.0668	9.86334	0.0
C2   69.7983	11.0807	0.0
C2   71.2184	11.0559	0.0
C2   71.9499	12.2733	0.0
C2   73.37	12.2484	0.0
C2   74.1015	13.4658	0.0
C2   75.5216	13.441	0.0
C2   76.2532	14.6584	0.0
C2   77.6732	14.6335	0.0
C2   78.4048	15.8509	0.0
C2   58.2657	1.44099	0.0
C2   58.9972	2.65838	0.0
C2   60.4173	2.63354	0.0
C2   61.1488	3.85093	0.0
C2   62.5689	3.82608	0.0
C2   63.3004	5.04347	0.0
C2   64.7205	5.01863	0.0
C2   65.4521	6.23602	0.0
C2   66.8721	6.21117	0.0
C2   67.6037	7.42856	0.0
C2   69.0237	7.40372	0.0
C2   69.7553	8.6211	0.0
C2   71.1753	8.59626	0.0
C2   71.9069	9.81365	0.0
C2   73.327	9.78881	0.0
C2   74.0585	11.0062	0.0
C2   75.4786	10.9813	0.0
C2   76.2101	12.1987	0.0
C2   58.9542	0.198757	0.0
C2   60.3743	0.173913	0.0
C2   61.1058	1.3913	0.0
C2   62.5259	1.36646	0.0
C2   63.2574	2.58385	0.0
C2   64.6775	2.559	0.0
C2   65.409	3.77639	0.0
C2   66.8291	3.75155	0.0
C2   67.5606	4.96894	0.0
C2   68.9807	4.94409	0.0
C2   69.7122	6.16148	0.0
C2   71.1323	6.13664	0.0
C2   71.8639	7.35403	0.0
C2   73.2839	7.32918	0.0
C2   74.0155	8.54657	0.0
C2   63.2144	0.124223	0.0
C2   64.6344	0.0993787	0.0
C2   65.366	1.31677	0.0
C2   66.7861	1.29192	0.0
C2   67.5176	2.50931	0.0
C2   68.9377	2.48447	0.0
C2   69.6692	3.70186	0.0
C2   71.0893	3.67701	0.0
C2   71.8208	4.8944	0.0
C2   67.4746	0.0496893	0.0
C2   68.8946	0.0248447	0.0
C2   69.6262	1.24223	0.0
C1   85.0748	49.4658	-3.3
C1   85.7633	50.708	-3.3
C1   87.1833	50.7328	-3.3
C1   87.8719	51.9751	-3.3
C1   89.2919	51.9999	-3.3
C1   89.9804	53.2422	-3.3
C1   91.4005	53.267	-3.3
C1   92.089	54.5092	-3.3
C1   93.5091	54.5341	-3.3
C1   94.1976	55.7763	-3.3
C1   95.6177	55.8012	-3.3
C1   96.3062	57.0434	-3.3
C1   97.7262	57.0682	-3.3
C1   98.4148	58.3105	-3.3
C1   99.8348	58.3353	-3.3
C1   100.523	59.5775	-3.3
C1   101.943	59.6024	-3.3
C1   102.632	60.8446	-3.3
C1   104.052	60.8695	-3.3
C1   87.1403	53.1925	-3.3
C1   87.8288	54.4347	-3.3
C1   89.2489	54.4595	-3.3
C1   89.9374	55.7018	-3.3
C1   91.3575	55.7266	-3.3
C1   92.046	56.9689	-3.3
C1   93.4661	56.9937	-3.3
C1   94.1546	58.2359	-3.3
C1   95.5746	58.2608	-3.3
C1   96.2631	59.503	-3.3
C1   97.6832	59.5279	-3.3
C1   98.3717	60.7701	-3.3
C1   99.7918	60.7949	-3.3
C1   89.2059	56.9192	-3.3
C1   89.8944	58.1614	-3.3
C1   91.3144	58.1862	-3.3
C1   92.003	59.4285	-3.3
C1   93.423	59.4533	-3.3
C1   94.1115	60.6956	-3.3
C1   95.5316	60.7204	-3.3
C1   91.2714	60.6459	-3.3
C1   86.1075	31.031	-3.3
C1   87.5276	31.0559	-3.3
C1   88.2161	32.2981	-3.3
C1   81.8473	30.9565	-3.3
C1   83.2674	30.9813	-3.3
C1   83.9559	32.2236	-3.3
C1   85.376	32.2484	-3.3
C1   86.0645	33.4906	-3.3
C1   87.4846	33.5155	-3.3
C1   88.1731	34.7577	-3.3
C1   89.5932	34.7826	-3.3
C1   90.2817	36.0248	-3.3
C1   77.5872	30.8819	-3.3
C1   79.0072	30.9068	-3.3
C1   79.6957	32.149	-3.3
C1   81.1158	32.1739	-3.3
C1   81.8043	33.4161	-3.3
C1   83.2244	33.4409	-3.3
C1   83.9129	34.6832	-3.3
C1   85.333	34.708	-3.3
C1   86.0215	35.9503	-3.3
C1   87.4415	35.9751	-3.3
C1   88.1301	37.2173	-3.3
C1   89.5501	37.2422	-3.3
C1   90.2386	38.4844	-3.3
C1   91.6587	38.5093	-3.3
C1   92.3472	39.7515	-3.3
C1   74.747	30.8323	-3.3
C1   75.4355	32.0745	-3.3
C1   76.8556	32.0993	-3.3
C1   77.5441	33.3416	-3.3
C1   78.9642	33.3664	-3.3
C1   79.6527	34.6086	-3.3
C1   81.0728	34.6335	-3.3
C1   81.7613	35.8757	-3.3
C1   83.1813	35.9006	-3.3
C1   83.8699	37.1428	-3.3
C1   85.2899	37.1676	-3.3
C1   85.9784	38.4099	-3.3
C1   87.3985	38.4347	-3.3
C1   88.087	39.677	-3.3
C1   89.5071	39.7018	-3.3
C1   90.1956	40.944	-3.3
C1   91.6157	40.9689	-3.3
C1   92.3042	42.2111	-3.3
C1   93.7242	42.236	-3.3
C1   94.4128	43.4782	-3.3
C1   76.8126	34.559	-3.3
C1   77.5011	35.8012	-3.3
C1   78.9212	35.826	-3.3
C1   79.6097	37.0683	-3.3
C1   81.0297	37.0931	-3.3
C1   81.7182	38.3353	-3.3
C1   83.1383	38.3602	-3.3
C1   83.8268	39.6024	-3.3
C1   85.2469	39.6273	-3.3
C1   85.9354	40.8695	-3.3
C1   87.3555	40.8943	-3.3
C1   88.044	42.1366	-3.3
C1   89.4641	42.1614	-3.3
C1   90.1526	43.4037	-3.3
C1   91.5726	43.4285	-3.3
C1   92.2612	44.6707	-3.3
C1   93.6812	44.6956	-3.3
C1   94.3697	45.9378	-3.3
C1   95.7898	45.9627	-3.3
C1   96.4783	47.2049	-3.3
C1   78.8781	38.2857	-3.3
C1   79.5666	39.5279	-3.3
C1   80.9867	39.5527	-3.3
C1   81.6752	40.795	-3.3
C1   83.0953	40.8198	-3.3
C1   83.7838	42.062	-3.3
C1   85.2039	42.0869	-3.3
C1   85.8924	43.3291	-3.3
C1   87.3124	43.354	-3.3
C1   88.001	44.5962	-3.3
C1   89.421	44.6211	-3.3
C1   90.1095	45.8633	-3.3
C1   91.5296	45.8881	-3.3
C1   92.2181	47.1304	-3.3
C1   93.6382	47.1552	-3.3
C1   94.3267	48.3974	-3.3
C1   95.7468	48.4223	-3.3
C1   96.4353	49.6645	-3.3
C1   97.8553	49.6894	-3.3
C1   98.5439	50.9316	-3.3
C1   80.9437	42.0124	-3.3
C1   81.6322	43.2546	-3.3
C1   83.0522	43.2794	-3.3
C1   83.7408	44.5217	-3.3
C1   85.1608	44.5465	-3.3
C1   85.8493	45.7888	-3.3
C1   87.2694	45.8136	-3.3
C1   87.9579	47.0558	-3.3
C1   89.378	47.0807	-3.3
C1   90.0665	48.3229	-3.3
C1   91.4866	48.3478	-3.3
C1   92.1751	49.59	-3.3
C1   93.5951	49.6148	-3.3
C1   94.2837	50.8571	-3.3
C1   95.7037	50.8819	-3.3
C1   96.3922	52.1241	-3.3
C1   97.8123	52.149	-3.3
C1   98.5008	53.3912	-3.3
C1   99.9209	53.4161	-3.3
C1   100.609	54.6583	-3.3
C1   83.0092	45.7391	-3.3
C1   83.6977	46.9813	-3.3
C1   85.1178	47.0061	-3.3
C1   85.8063	48.2484	-3.3
C1   87.2264	48.2732	-3.3
C1   87.9149	49.5155	-3.3
C1   89.335	49.5403	-3.3
C1   90.0235	50.7825	-3.3
C1   91.4435	50.8074	-3.3
C1   92.1321	52.0496	-3.3
C1   93.5521	52.0745	-3.3
C1   94.2406	53.3167	-3.3
C1   95.6607	53.3415	-3.3
C1   96.3492	54.5838	-3.3
C1   97.7693	54.6086	-3.3
C1   98.4578	55.8508	-3.3
C1   99.8779	55.8757	-3.3
C1   100.566	57.1179	-3.3
C1   101.986	57.1428	-3.3
C1   102.675	58.385	-3.3
C2   82.4498	44.0745	0.0
C2   83.1813	45.2919	0.0
C2   84.6014	45.267	0.0
C2   85.333	46.4844	0.0
C2   86.753	46.4596	0.0
C2   87.4846	47.6769	0.0
C2   88.9046	47.6521	0.0
C2   89.6362	48.8695	0.0
C2   91.0562	48.8446	0.0
C2   91.7878	50.062	0.0
C2   93.2079	50.0372	0.0
C2   93.9394	51.2546	0.0
C2   95.3595	51.2297	0.0
C2   96.091	52.4471	0.0
C2   97.5111	52.4223	0.0
C2   98.2426	53.6397	0.0
C2   99.6627	53.6148	0.0
C2   100.394	54.8322	0.0
C2   101.814	54.8074	0.0
C2   102.546	56.0248	0.0
C2   80.2552	40.4223	0.0
C2   80.9867	41.6397	0.0
C2   82.4068	41.6148	0.0
C2   83.1383	42.8322	0.0
C2   84.5584	42.8074	0.0
C2   85.2899	44.0248	0.0
C2   86.71	43.9999	0.0
C2   87.4415	45.2173	0.0
C2   88.8616	45.1925	0.0
C2   89.5932	46.4099	0.0
C2   91.0132	46.385	0.0
C2   91.7448	47.6024	0.0
C2   93.1648	47.5776	0.0
C2   93.8964	48.795	0.0
C2   95.3164	48.7701	0.0
C2   96.048	49.9875	0.0
C2   97.4681	49.9627	0.0
C2   98.1996	51.18	0.0
C2   99.6197	51.1552	0.0
C2   100.351	52.3726	0.0
C2   78.0605	36.7701	0.0
C2   78.7921	37.9875	0.0
C2   80.2121	37.9627	0.0
C2   80.9437	39.1801	0.0
C2   82.3637	39.1552	0.0
C2   83.0953	40.3726	0.0
C2   84.5153	40.3478	0.0
C2   85.2469	41.5652	0.0
C2   86.667	41.5403	0.0
C2   87.3985	42.7577	0.0
C2   88.8186	42.7329	0.0
C2   89.5501	43.9502	0.0
C2   90.9702	43.9254	0.0
C2   91.7017	45.1428	0.0
C2   93.1218	45.1179	0.0
C2   93.8533	46.3353	0.0
C2   95.2734	46.3105	0.0
C2   96.005	47.5279	0.0
C2   97.425	47.503	0.0
C2   98.1566	48.7204	0.0
C2   75.8659	33.118	0.0
C2   76.5974	34.3354	0.0
C2   78.0175	34.3105	0.0
C2   78.749	35.5279	0.0
C2   80.1691	35.5031	0.0
C2   80.9006	36.7204	0.0
C2   82.3207	36.6956	0.0
C2   83.0522	37.913	0.0
C2   84.4723	37.8881	0.0
C2   85.2039	39.1055	0.0
C2   86.6239	39.0807	0.0
C2   87.3555	40.2981	0.0
C2   88.7755	40.2732	0.0
C2   89.5071	41.4906	0.0
C2   90.9272	41.4658	0.0
C2   91.6587	42.6832	0.0
C2   93.0788	42.6583	0.0
C2   93.8103	43.8757	0.0
C2   95.2304	43.8509	0.0
C2   95.9619	45.0683	0.0
C2   74.4028	30.6832	0.0
C2   75.8228	30.6583	0.0
C2   76.5544	31.8757	0.0
C2   77.9744	31.8509	0.0
C2   78.706	33.0683	0.0
C2   80.1261	33.0434	0.0
C2   80.8576	34.2608	0.0
C2   82.2777	34.236	0.0
C2   83.0092	35.4534	0.0
C2   84.4293	35.4285	0.0
C2   85.1608	36.6459	0.0
C2   86.5809	36.6211	0.0
C2   87.3124	37.8385	0.0
C2   88.7325	37.8136	0.0
C2   89.4641	39.031	0.0
C2   90.8841	39.0062	0.0
C2   91.6157	40.2235	0.0
C2   93.0357	40.1987	0.0
C2   93.7673	41.4161	0.0
C2   78.663	30.6086	0.0
C2   80.083	30.5838	0.0
C2   80.8146	31.8012	0.0
C2   82.2346	31.7763	0.0
C2   82.9662	32.9937	0.0
C2   84.3862	32.9689	0.0
C2   85.1178	34.1863	0.0
C2   86.5379	34.1614	0.0
C2   87.2694	35.3788	0.0
C2   88.6895	35.354	0.0
C2   89.421	36.5714	0.0
C2   90.8411	36.5465	0.0
C2   91.5726	37.7639	0.0
C2   82.9232	30.5341	0.0
C2   84.3432	30.5093	0.0
C2   85.0748	31.7267	0.0
C2   86.4948	31.7018	0.0
C2   87.2264	32.9192	0.0
C2   88.6464	32.8944	0.0
C2   89.378	34.1117	0.0
C2   87.1833	30.4596	0.0
C2   91.2284	58.6831	0.0
C2   91.9599	59.9005	0.0
C2   93.38	59.8757	0.0
C2   89.0337	55.031	0.0
C2   89.7653	56.2484	0.0
C2   91.1853	56.2235	0.0
C2   91.9169	57.4409	0.0
C2   93.337	57.4161	0.0
C2   94.0685	58.6335	0.0
C2   95.4886	58.6086	0.0
C2   96.2201	59.826	0.0
C2   97.6402	59.8012	0.0
C2   86.8391	51.3788	0.0
C2   87.5706	52.5962	0.0
C2   88.9907	52.5713	0.0
C2   89.7222	53.7887	0.0
C2   91.1423	53.7639	0.0
C2   91.8739	54.9813	0.0
C2   93.2939	54.9564	0.0
C2   94.0255	56.1738	0.0
C2   95.4455	56.149	0.0
C2   96.1771	57.3664	0.0
C2   97.5971	57.3415	0.0
C2   98.3287	58.5589	0.0
C2   99.7488	58.5341	0.0
C2   100.48	59.7515	0.0
C2   101.9	59.7266	0.0
C2   84.6444	47.7266	0.0
C2   85.376	48.944	0.0
C2   86.7961	48.9192	0.0
C2   87.5276	50.1366	0.0
C2   88.9477	50.1117	0.0
C2   89.6792	51.3291	0.0
C2   91.0993	51.3043	0.0
C2   91.8308	52.5217	0.0
C2   93.2509	52.4968	0.0
C2   93.9824	53.7142	0.0
C2   95.4025	53.6894	0.0
C2   96.1341	54.9067	0.0
C2   97.5541	54.8819	0.0
C2   98.2857	56.0993	0.0
C2   99.7057	56.0744	0.0
C2   100.437	57.2918	0.0
C2   101.857	57.267	0.0
C2   102.589	58.4844	0.0
C2   104.009	58.4595	0.0
C2   104.741	59.6769	0.0
