4376
C   1.39024	0.0158757	-0.144
C   2.80991	0.0528	-0.141
C   3.48801	1.30056	-0.141
C   4.90771	1.33689	-0.1363
C   5.58656	2.58418	-0.135
C   7.00632	2.61964	-0.1295
C   7.686	3.86643	-0.1277
C   9.1058	3.9011	-0.1217
C   9.78624	5.14745	-0.1197
C   11.2061	5.18138	-0.113
C   11.8874	6.42723	-0.1107
C   13.3073	6.46014	-0.103
C   13.9898	7.7053	-0.1001
C   15.4098	7.7367	-0.0916
C   16.0938	8.98094	-0.0885
C   2.74628	2.51162	-0.1381
C   3.42518	3.75895	-0.1366
C   4.84495	3.79535	-0.1324
C   5.52478	5.04211	-0.1303
C   6.94462	5.07781	-0.1252
C   7.62529	6.32404	-0.123
C   9.0452	6.35909	-0.1173
C   9.72674	7.60482	-0.1149
C   11.1467	7.63916	-0.1083
C   11.8294	8.88421	-0.1054
C   13.2495	8.91749	-0.0977
C   13.9337	10.1616	-0.0945
C   15.354	10.1934	-0.086
C   16.04	11.4365	-0.0831
C   17.4604	11.4665	-0.0747
C   18.148	12.7086	-0.0728
C   4.78369	6.25354	-0.1266
C   5.46445	7.4998	-0.1242
C   6.88438	7.53563	-0.1197
C   7.56607	8.78131	-0.1172
C   8.98609	8.81661	-0.1118
C   9.66894	10.0616	-0.1089
C   11.0891	10.0962	-0.1025
C   11.7735	11.3403	-0.0992
C   13.1938	11.3739	-0.0917
C   13.88	12.6168	-0.0885
C   15.3005	12.649	-0.0805
C   15.9886	13.8909	-0.078
C   17.4093	13.9216	-0.0702
C   18.0989	15.1625	-0.0691
C   19.5196	15.192	-0.062
C   20.2102	16.4324	-0.0625
C   6.82565	9.99314	-0.1132
C   7.50852	11.2382	-0.1101
C   8.92869	11.2735	-0.1052
C   9.61317	12.5176	-0.1017
C   11.0335	12.5523	-0.0958
C   11.7199	13.7953	-0.0923
C   13.1404	13.8291	-0.0855
C   13.8288	15.0708	-0.0825
C   15.2496	15.1034	-0.0753
C   15.9397	16.3441	-0.0735
C   17.3606	16.3756	-0.0666
C   18.0519	17.6156	-0.0663
C   19.4729	17.6461	-0.0601
C   20.1649	18.8858	-0.0613
C   21.5858	18.9159	-0.056
C   22.2778	20.1558	-0.0587
C   8.8734	13.7297	-0.0973
C   9.55983	14.9727	-0.0934
C   10.9804	15.0074	-0.0884
C   11.6689	16.2491	-0.0849
C   13.0897	16.2831	-0.0793
C   13.7802	17.5237	-0.0768
C   15.2011	17.5568	-0.0709
C   15.893	18.7965	-0.0699
C   17.3141	18.8287	-0.0642
C   18.0069	20.0679	-0.0648
C   19.428	20.0995	-0.0595
C   20.121	21.3387	-0.0617
C   21.542	21.3701	-0.057
C   22.2346	22.6098	-0.0607
C   23.6554	22.6414	-0.0566
C   24.3471	23.8817	-0.0616
C   10.93	17.4615	-0.0807
C   11.6206	18.7021	-0.0778
C   13.0415	18.7362	-0.0735
C   13.7337	19.9757	-0.0719
C   15.1549	20.0092	-0.0675
C   15.8482	21.2481	-0.0675
C   17.2694	21.281	-0.0631
C   17.963	22.5197	-0.0647
C   19.3842	22.5523	-0.0606
C   20.0776	23.7913	-0.0639
C   21.4987	23.8239	-0.0601
C   12.9956	21.1884	-0.0687
C   13.689	22.4273	-0.0682
C   15.1103	22.4608	-0.0653
C   15.8043	23.6994	-0.0664
C   17.2255	23.7327	-0.0635
C   9.90892	0.231028	-0.1248
C   11.3286	0.264223	-0.1182
C   12.008	1.51119	-0.1173
C   5.64946	0.125744	-0.1374
C   7.06914	0.16102	-0.1316
C   7.74792	1.40833	-0.1307
C   9.16763	1.44266	-0.1245
C   9.84712	2.68954	-0.1232
C   11.2669	2.72304	-0.1165
C   11.947	3.96952	-0.1148
C   13.3668	4.00201	-0.1074
C   14.0479	5.24799	-0.105
C   3.5845	1.17327	3.439
C   5.00413	1.13704	3.4382
C   5.74507	2.34862	3.433
C   7.16466	2.31335	3.4315
C   7.90489	3.52539	3.4256
C   9.32447	3.49105	3.4238
C   10.0641	4.7035	3.4175
C   11.4837	4.67005	3.4153
C   12.2226	5.88297	3.4082
C   13.6422	5.85065	3.4055
C   14.38	7.06429	3.3974
C   7.84289	1.06554	3.4289
C   9.26251	1.0314	3.4268
C   10.0031	2.24337	3.4214
C   11.4227	2.2102	3.4191
C   12.1627	3.42255	3.413
C   14.0004	23.1021	3.3667
C   14.726	24.3224	3.3645
C   16.1451	24.2898	3.3664
C   11.8091	19.4483	3.374
C   12.5366	20.6675	3.3688
C   13.9557	20.6346	3.3694
C   14.682	21.8545	3.3654
C   16.1012	21.822	3.3663
C   16.8269	23.0423	3.3635
C   18.2461	23.0101	3.3647
C   18.9721	24.2302	3.3631
C   20.3914	24.198	3.3648
C   9.61063	15.7992	3.3886
C   10.3418	17.0163	3.3813
C   11.7611	16.9825	3.3808
C   12.4903	18.2007	3.3742
C   13.9095	18.1677	3.3737
C   14.6371	19.3869	3.3681
C   16.0563	19.3547	3.3679
C   16.7829	20.5746	3.3635
C   18.2022	20.543	3.3639
C   18.9285	21.763	3.3606
C   20.3479	21.7317	3.3617
C   21.0746	22.9515	3.3595
C   22.4941	22.9202	3.3613
C   23.2218	24.1393	3.3601
C   24.6415	24.1076	3.3625
C   7.40297	12.1557	3.4059
C   8.1382	13.3705	3.3984
C   9.55772	13.3358	3.3975
C   10.291	14.5516	3.3897
C   11.7104	14.5177	3.3884
C   12.4417	15.7348	3.3808
C   13.8611	15.7018	3.3793
C   14.5904	16.92	3.3723
C   16.0098	16.8882	3.3712
C   16.7378	18.1073	3.3652
C   18.1572	18.0764	3.3649
C   18.8845	19.296	3.3601
C   20.3039	19.2658	3.3607
C   21.0312	20.4854	3.357
C   22.4508	20.4554	3.3587
C   23.1786	21.6746	3.356
C   5.18818	8.51665	3.421
C   5.92619	9.72979	3.4145
C   7.34581	9.69437	3.4141
C   8.08266	10.9082	3.4069
C   9.50223	10.8734	3.4058
C   10.2376	12.0881	3.398
C   11.6571	12.0541	3.3962
C   12.3906	13.27	3.388
C   13.81	13.2371	3.3858
C   14.5416	14.4542	3.3778
C   15.961	14.4227	3.3758
C   16.6909	15.6408	3.3686
C   18.1103	15.6107	3.3675
C   18.8392	16.8295	3.3614
C   20.2587	16.8003	3.3616
C   20.987	18.0195	3.3566
C   2.96886	4.88053	3.4341
C   3.70871	6.09262	3.4281
C   5.12833	6.05644	3.4281
C   5.86731	7.26906	3.4217
C   7.28691	7.23358	3.4211
C   8.02503	8.44672	3.4143
C   9.44462	8.41193	3.413
C   10.1817	9.62571	3.4055
C   11.6013	9.59177	3.4035
C   12.3369	10.8065	3.3952
C   13.7564	10.7737	3.3927
C   14.4902	11.9896	3.3841
C   15.9097	11.9584	3.3816
C   16.6418	13.1754	3.3734
C   18.0612	13.1458	3.3717
C   18.7919	14.3637	3.3644
C   0.745357	1.24696	3.4429
C   1.4869	2.45809	3.439
C   2.90655	2.42121	3.44
C   3.64735	3.63279	3.4345
C   5.06696	3.59655	3.4342
C   5.80691	4.80865	3.428
C   7.2265	4.77325	3.427
C   7.9657	5.98582	3.4205
C   9.38529	5.95121	3.419
C   10.1237	7.16425	3.412
C   11.5433	7.1305	3.41
C   12.2808	8.3442	3.4021
C   13.7003	8.31164	3.3994
C   14.4363	9.5263	3.3908
C   15.8559	9.49534	3.3879
C   16.5901	10.7111	3.3792
C   22.1912	25.0636	-0.0649
C   23.6121	25.0964	-0.0614
C   24.3032	26.337	-0.0675
C   25.7239	26.3703	-0.0644
C   26.4133	27.612	-0.0717
C   17.9194	24.9714	-0.0663
C   19.3406	25.0047	-0.0635
C   20.0338	26.2439	-0.0679
C   21.4548	26.2774	-0.0652
C   22.1466	27.5174	-0.0712
C   23.5674	27.5512	-0.0686
C   24.2574	28.7924	-0.0758
C   25.6779	28.8265	-0.0734
C   26.3659	30.069	-0.0816
C   27.7862	30.1033	-0.0792
C   28.472	31.3472	-0.0879
C   15.0665	24.9121	-0.0645
C   15.7604	26.1507	-0.0667
C   17.1817	26.1842	-0.0654
C   17.8751	27.4231	-0.0694
C   19.2962	27.4568	-0.0681
C   19.9884	28.6965	-0.0737
C   21.4093	28.7307	-0.0723
C   22.0997	29.9715	-0.0793
C   23.5204	30.0059	-0.0778
C   24.2086	31.248	-0.0858
C   25.6291	31.2827	-0.0841
C   26.3152	32.5261	-0.0927
C   27.7354	32.561	-0.0908
C   28.4194	33.8057	-0.0994
C   29.8394	33.8408	-0.0974
C   30.5215	35.0866	-0.1055
C   17.1369	28.6356	-0.0688
C   17.8291	29.8752	-0.074
C   19.2501	29.9091	-0.0742
C   19.9406	31.1497	-0.0808
C   21.3614	31.1842	-0.0808
C   22.0498	32.426	-0.0884
C   23.4704	32.4609	-0.088
C   24.1567	33.704	-0.0962
C   25.577	33.7391	-0.0952
C   26.2612	34.9835	-0.1035
C   27.6814	35.0188	-0.1021
C   28.3637	36.2643	-0.11
C   29.7838	36.2998	-0.1082
C   30.4647	37.5462	-0.1153
C   31.8846	37.5819	-0.113
C   32.5645	38.829	-0.1191
C   34.6635	40.1122	-0.1209
C   19.2016	32.362	-0.0813
C   19.8901	33.6037	-0.0886
C   21.3107	33.6383	-0.0897
C   21.997	34.8813	-0.0975
C   23.4175	34.9163	-0.098
C   24.1018	36.1605	-0.1058
C   25.522	36.1959	-0.1055
C   26.2046	37.4411	-0.113
C   27.6247	37.4768	-0.112
C   28.306	38.7229	-0.119
C   29.726	38.7589	-0.1175
C   30.4062	40.0056	-0.1238
C   31.826	40.0418	-0.1214
C   32.5053	41.2891	-0.1268
C   33.925	41.3251	-0.1233
C   34.6037	42.5728	-0.1274
C   36.0233	42.6082	-0.1228
C   36.7017	43.8561	-0.1256
C   21.2572	36.0933	-0.0984
C   21.9416	37.3373	-0.1059
C   23.3618	37.3725	-0.1069
C   24.0446	38.6175	-0.1141
C   25.4647	38.6531	-0.1143
C   26.1463	39.8989	-0.1211
C   27.5663	39.935	-0.1205
C   28.2468	41.1814	-0.127
C   29.6666	41.2179	-0.1256
C   30.3462	42.4649	-0.1315
C   31.7659	42.5015	-0.1289
C   32.4446	43.7491	-0.1336
C   33.8643	43.7853	-0.1297
C   34.5425	45.0331	-0.1329
C   35.9621	45.0685	-0.1278
C   36.6402	46.3163	-0.1295
C   38.0598	46.3506	-0.1236
C   38.7382	47.5982	-0.1243
C   23.3041	39.8293	-0.1145
C   23.9857	41.075	-0.121
C   25.4057	41.1106	-0.1217
C   26.0864	42.3569	-0.1281
C   27.5063	42.3931	-0.128
C   28.1861	43.64	-0.1342
C   29.6059	43.6767	-0.133
C   30.2846	44.9242	-0.1382
C   31.7043	44.9609	-0.1355
C   32.3824	46.2088	-0.1392
C   33.802	46.245	-0.1347
C   34.4799	47.493	-0.1366
C   35.8996	47.5282	-0.1309
C   36.5778	48.7759	-0.1314
C   37.9974	48.8101	-0.1252
C   25.3453	43.5682	-0.1281
C   26.025	44.815	-0.1341
C   27.4449	44.8513	-0.1345
C   28.1237	46.0986	-0.14
C   29.5434	46.1355	-0.139
C   30.2215	47.3833	-0.1429
C   31.6412	47.4202	-0.14
C   32.319	48.6681	-0.142
C   33.7386	48.7044	-0.1372
C   27.382	47.3096	-0.139
C   28.0601	48.5574	-0.1429
C   29.4797	48.5943	-0.142
C   30.1905	49.8254	3.442
C   31.6102	49.7885	3.4429
C   27.2245	44.9806	3.4366
C   27.9653	46.1922	3.4381
C   29.385	46.1554	3.441
C   30.1265	47.3665	3.441
C   31.5462	47.3296	3.442
C   32.2881	48.5406	3.44
C   33.7078	48.5044	3.4392
C   34.4494	49.7155	3.4355
C   35.8691	49.6804	3.4336
C   25.0045	41.3441	3.4242
C   25.7434	42.5568	3.4266
C   27.1631	42.5207	3.4303
C   27.9029	43.7329	3.4324
C   29.3226	43.6962	3.435
C   30.0634	44.9077	3.4363
C   31.4831	44.8709	3.4374
C   32.2246	46.0821	3.4372
C   33.6444	46.0458	3.4366
C   34.3862	47.2568	3.4347
C   35.8059	47.2216	3.4329
C   36.5476	48.4328	3.4297
C   37.9673	48.3987	3.4274
C   38.7085	49.6103	3.4233
C   40.1281	49.5772	3.4209
C   22.789	37.7047	3.4101
C   23.5258	38.9186	3.4132
C   24.9455	38.8833	3.4172
C   25.6834	40.0965	3.4197
C   27.1031	40.0607	3.423
C   27.8421	41.2733	3.4252
C   29.2619	41.2369	3.4277
C   30.0018	42.4489	3.4295
C   31.4216	42.4123	3.4307
C   32.1624	43.6238	3.4316
C   33.5823	43.5875	3.4314
C   34.3237	44.7987	3.4309
C   35.7435	44.7633	3.4295
C   36.4851	45.9745	3.4278
C   37.9049	45.9401	3.4256
C   38.6464	47.1515	3.4228
C   20.5805	34.061	3.3934
C   21.3137	35.277	3.3973
C   22.7333	35.2423	3.4017
C   23.4685	36.4572	3.4052
C   24.8882	36.422	3.4089
C   25.6249	37.6359	3.4118
C   27.0447	37.6004	3.4149
C   27.7827	38.8135	3.4173
C   29.2026	38.7775	3.4197
C   29.9417	39.99	3.4217
C   31.3616	39.9538	3.4232
C   32.1017	41.1657	3.4245
C   33.5217	41.1295	3.4248
C   34.2625	42.341	3.4252
C   35.6824	42.3054	3.4243
C   36.4237	43.5167	3.4236
C   18.3811	30.4116	3.3778
C   19.1102	31.63	3.3807
C   20.5296	31.5962	3.3849
C   21.2607	32.8134	3.3884
C   22.6802	32.779	3.3923
C   23.4134	33.9949	3.3958
C   24.8331	33.9601	3.3992
C   25.5682	35.1749	3.4025
C   26.988	35.1397	3.4054
C   27.7249	36.3535	3.4083
C   29.1448	36.318	3.4107
C   29.8831	37.5309	3.413
C   31.3031	37.4952	3.4148
C   32.0425	38.7075	3.4165
C   33.4625	38.6716	3.4173
C   34.2027	39.8834	3.4182
C   16.1892	26.7577	3.3682
C   16.9154	27.9777	3.3687
C   18.3347	27.9448	3.3719
C   19.0621	29.164	3.3735
C   20.4814	29.1306	3.3768
C   21.2105	30.3488	3.3793
C   22.63	30.3149	3.3825
C   23.3612	31.5319	3.3855
C   24.7808	31.4975	3.3885
C   25.5141	32.7133	3.3917
C   26.9339	32.6786	3.3945
C   27.6692	33.8932	3.3977
C   29.0892	33.8582	3.4001
C   29.8263	35.0719	3.403
C   31.2463	35.0366	3.405
C   31.9849	36.2494	3.4074
C   16.8708	25.5101	3.3653
C   18.29	25.4774	3.3675
C   19.0163	26.6973	3.3675
C   20.4356	26.6644	3.3699
C   21.1632	27.8834	3.3709
C   22.5827	27.8501	3.3735
C   23.3121	29.0682	3.3753
C   24.7317	29.0344	3.378
C   25.4632	30.2513	3.3805
C   26.883	30.2171	3.3831
C   27.6165	31.4328	3.386
C   29.0365	31.3983	3.3885
C   29.772	32.6128	3.3916
C   21.1182	25.4176	3.3642
C   22.5377	25.3852	3.3663
C   23.2659	26.6039	3.3666
C   24.6856	26.571	3.3691
C   25.4155	27.7888	3.3702
C   26.8353	27.7554	3.3728
C   27.5672	28.972	3.3747
C   25.3705	25.3259	3.362
C   29.4487	48.6145	3.444
C   17.514	9.01046	-0.0798
C   18.1997	10.2537	-0.0774
C   19.62	10.2814	-0.0692
C   20.3072	11.5238	-0.0681
C   21.7277	11.55	-0.0609
C   22.4158	12.7919	-0.0615
C   23.8363	12.8175	-0.0556
C   24.5249	14.0593	-0.0575
C   25.9454	14.0849	-0.0527
C   26.6339	15.327	-0.0557
C   28.0542	15.3531	-0.0515
C   28.7422	16.5957	-0.0552
C   30.1624	16.6227	-0.0513
C   30.8497	17.866	-0.0554
C   32.2698	17.8938	-0.0517
C   32.9562	19.1378	-0.056
C   19.5686	12.7371	-0.0652
C   20.2576	13.9785	-0.0648
C   21.6782	14.0059	-0.0583
C   22.3679	15.247	-0.0595
C   23.7885	15.274	-0.0541
C   24.4783	16.5152	-0.0567
C   25.8989	16.5424	-0.0521
C   26.5883	17.7841	-0.0556
C   28.0088	17.8121	-0.0516
C   28.6976	19.0543	-0.0557
C   30.1179	19.0832	-0.0519
C   30.8058	20.3262	-0.0564
C   32.2259	20.3558	-0.0529
C   32.9128	21.5996	-0.0578
C   34.3327	21.6299	-0.0547
C   35.0185	22.8746	-0.0601
C   21.631	16.4611	-0.0565
C   22.322	17.7015	-0.0585
C   23.7428	17.7301	-0.0535
C   24.4336	18.9708	-0.0567
C   25.8542	18.9998	-0.0524
C   26.5444	20.2411	-0.0565
C   27.9649	20.2709	-0.0527
C   28.6542	21.5129	-0.0574
C   30.0745	21.5434	-0.0538
C   30.7627	22.7863	-0.0592
C   32.1828	22.8175	-0.0558
C   32.8697	24.0613	-0.0618
C   34.2896	24.093	-0.0589
C   23.6986	20.1859	-0.0542
C   24.3901	21.4263	-0.0581
C   25.8108	21.457	-0.0541
C   26.5014	22.6981	-0.0591
C   27.9218	22.7294	-0.0555
C   28.6112	23.9715	-0.0612
C   30.0315	24.0034	-0.0579
C   25.7677	23.9138	-0.058
C   22.6885	0.506109	-0.0772
C   18.4283	0.42392	-0.0932
C   19.8479	0.449876	-0.0854
C   20.5286	1.69585	-0.0839
C   21.9483	1.71948	-0.0765
C   22.63	2.96486	-0.0751
C   24.0497	2.98656	-0.0686
C   24.7323	4.23139	-0.0678
C   14.1685	0.331169	-0.1102
C   15.5881	0.361597	-0.1028
C   16.2681	1.60818	-0.1012
C   17.6878	1.63662	-0.0932
C   18.3685	2.88267	-0.0911
C   19.7883	2.90884	-0.0829
C   20.4701	4.1542	-0.0807
C   21.89	4.17821	-0.073
C   22.5731	5.42285	-0.0715
C   23.993	5.44519	-0.0647
C   24.6771	6.68927	-0.0643
C   26.0971	6.71066	-0.0587
C   26.7819	7.95446	-0.0595
C   13.4276	1.54332	-0.1102
C   14.1076	2.7899	-0.1085
C   15.5274	2.82056	-0.1006
C   16.2083	4.06661	-0.0983
C   17.6281	4.09533	-0.0898
C   18.3101	5.34065	-0.0871
C   19.7301	5.3672	-0.0787
C   20.4135	6.61168	-0.0764
C   21.8336	6.63628	-0.0687
C   22.5183	7.88001	-0.0675
C   23.9385	7.90323	-0.0609
C   24.6242	9.14649	-0.0612
C   26.0444	9.16909	-0.0558
C   26.7306	10.4122	-0.0575
C   28.1507	10.4349	-0.053
C   28.8368	11.6783	-0.0559
C   15.4677	5.279	-0.0967
C   16.15	6.52427	-0.0938
C   17.57	6.55335	-0.085
C   18.2537	7.79771	-0.0823
C   19.6739	7.82475	-0.0738
C   20.3592	9.06821	-0.072
C   21.7794	9.09355	-0.0644
C   22.4659	10.3363	-0.0641
C   23.8863	10.3606	-0.0578
C   24.5735	11.6031	-0.059
C   25.9939	11.6271	-0.0538
C   26.6812	12.8697	-0.0564
C   28.1015	12.8941	-0.052
C   28.7885	14.1371	-0.0554
C   30.2087	14.1622	-0.0515
C   30.8951	15.4058	-0.0552
C   15.7996	7.03356	3.3943
C   16.536	8.24819	3.3856
C   17.9555	8.21938	3.3828
C   18.6904	9.43511	3.3742
C   20.1099	9.40816	3.3724
C   20.8433	10.6249	3.3647
C   22.2629	10.5994	3.3644
C   22.9955	11.8166	3.3579
C   24.4151	11.7919	3.3592
C   25.1474	13.0094	3.3538
C   26.5672	12.9847	3.3564
C   27.2997	14.202	3.3519
C   28.7197	14.1768	3.3554
C   29.4528	15.3936	3.3513
C   30.873	15.3676	3.3552
C   31.6069	16.5838	3.3515
C   13.5823	3.3905	3.4104
C   14.3216	4.60335	3.4032
C   15.7412	4.57286	3.4001
C   16.4794	5.78648	3.3919
C   17.899	5.75794	3.3887
C   18.6359	6.97255	3.3802
C   20.0554	6.94607	3.3777
C   20.7909	8.16168	3.3696
C   22.2105	8.13693	3.3685
C   22.9448	9.35333	3.3613
C   24.3644	9.32971	3.3618
C   25.0982	10.5465	3.3558
C   26.5179	10.5233	3.3578
C   27.2516	11.7401	3.3529
C   28.6715	11.7166	3.356
C   29.4056	12.933	3.3517
C   12.1016	0.962803	3.416
C   13.5212	0.930928	3.4133
C   14.2616	2.14326	3.4074
C   15.6812	2.11294	3.4043
C   16.4208	3.32582	3.3972
C   17.8404	3.2975	3.3939
C   18.5791	4.51115	3.3861
C   19.9986	4.48503	3.3831
C   20.7361	5.69959	3.3751
C   22.1556	5.67545	3.3732
C   22.8919	6.89087	3.3658
C   24.3115	6.86818	3.3654
C   25.0469	8.08418	3.3589
C   26.4665	8.06223	3.3601
C   27.2016	9.27843	3.3547
C   16.3607	0.865974	3.4007
C   17.7803	0.837771	3.3972
C   18.5203	2.05074	3.3907
C   19.9398	2.02486	3.3874
C   20.6789	3.23855	3.3803
C   22.0985	3.21488	3.3778
C   22.8366	4.42935	3.3707
C   24.2561	4.40742	3.3696
C   24.9933	5.62255	3.363
C   20.62	0.778435	3.3838
C   22.0396	0.755012	3.3808
C   22.7791	1.96875	3.3749
C   24.5983	21.6442	3.3585
C   25.3271	22.8628	3.3565
C   26.747	22.8318	3.3595
C   27.477	24.0496	3.3583
C   28.897	24.0178	3.3615
C   22.4066	17.9908	3.3581
C   23.1351	19.2098	3.3542
C   24.5549	19.1809	3.3567
C   25.2839	20.3995	3.3535
C   26.7039	20.37	3.3567
C   27.4339	21.5879	3.3541
C   28.854	21.5575	3.3575
C   29.5851	22.7748	3.3556
C   31.0054	22.7435	3.359
C   31.7378	23.9599	3.3578
C   33.1583	23.9279	3.3612
C   20.2114	14.3355	3.364
C   20.9412	15.554	3.358
C   22.3608	15.5265	3.3591
C   23.0904	16.7451	3.3541
C   24.5102	16.7177	3.3565
C   25.24	17.9361	3.3524
C   26.66	17.9082	3.3556
C   27.3905	19.1261	3.3521
C   28.8107	19.0973	3.3557
C   29.5421	20.3146	3.3527
C   30.9624	20.2849	3.3564
C   31.6948	21.5015	3.3538
C   33.1153	21.4709	3.3575
C   33.8488	22.6867	3.3558
C   35.2695	22.6553	3.3595
C   36.0042	23.8703	3.3587
C   18.0096	10.682	3.3769
C   18.7423	11.8989	3.3688
C   20.1619	11.8713	3.3677
C   20.8934	13.089	3.3607
C   22.313	13.0626	3.3612
C   23.0439	14.2806	3.3555
C   24.4637	14.2546	3.3574
C   25.1946	15.4726	3.3527
C   26.6145	15.4464	3.3557
C   27.346	16.664	3.3516
C   28.7661	16.6371	3.3552
C   29.4982	17.8542	3.3515
C   30.9185	17.8262	3.3554
C   31.6515	19.0427	3.352
C   33.0719	19.0138	3.3559
C   33.8057	20.2297	3.353
C   34.975	25.338	-0.0654
C   36.3947	25.3703	-0.063
C   37.0784	26.6163	-0.0696
C   30.7194	25.2465	-0.0644
C   32.1395	25.2789	-0.0613
C   32.8257	26.5231	-0.0685
C   34.2456	26.556	-0.0658
C   34.93	27.8013	-0.0732
C   36.3496	27.8347	-0.0707
C   37.0323	29.0811	-0.0778
C   38.4518	29.1148	-0.0749
C   39.1332	30.362	-0.0808
C   40.5526	30.3957	-0.0771
C   41.2333	31.6434	-0.0812
C   26.4581	25.1551	-0.064
C   27.8785	25.1877	-0.0607
C   28.5673	26.43	-0.0677
C   29.9875	26.4631	-0.0647
C   30.6745	27.7066	-0.0724
C   32.0945	27.7401	-0.0696
C   32.7795	28.9849	-0.0777
C   34.1993	29.0186	-0.0751
C   34.8824	30.2646	-0.0831
C   36.3021	30.2986	-0.0803
C   36.9836	31.5456	-0.0874
C   38.4031	31.5797	-0.0838
C   39.0837	32.8273	-0.0893
C   40.5031	32.8611	-0.0846
C   41.1832	34.1089	-0.0883
C   42.6027	34.1418	-0.0826
C   43.2828	35.3894	-0.0848
C   27.8337	27.6456	-0.0688
C   28.5212	28.8886	-0.0769
C   29.9414	28.9225	-0.0742
C   30.6268	30.1668	-0.0828
C   32.0468	30.201	-0.0802
C   32.7302	31.4464	-0.0887
C   34.15	31.4809	-0.0861
C   34.8318	32.7274	-0.0939
C   36.2514	32.762	-0.0907
C   36.9319	34.0093	-0.0972
C   38.3515	34.0438	-0.093
C   39.0313	35.2915	-0.0977
C   40.4509	35.3254	-0.0924
C   41.1306	36.5731	-0.0954
C   42.5501	36.6059	-0.0892
C   43.2299	37.8534	-0.091
C   44.6495	37.8845	-0.0844
C   45.3295	39.1318	-0.0855
C   29.8921	31.3817	-0.0856
C   30.5758	32.6268	-0.0943
C   31.9958	32.6615	-0.0919
C   32.6777	33.9077	-0.1001
C   34.0974	33.9426	-0.0972
C   34.778	35.1896	-0.1043
C   36.1977	35.2246	-0.1007
C   36.8774	36.4721	-0.1061
C   38.297	36.5068	-0.1015
C   38.9764	37.7545	-0.1053
C   40.3961	37.7885	-0.0997
C   41.0755	39.0361	-0.1021
C   42.495	39.0688	-0.0956
C   43.1746	40.3162	-0.0971
C   44.5942	40.3471	-0.0902
C   45.2739	41.5942	-0.0912
C   46.6935	41.6229	-0.0843
C   47.3735	42.8698	-0.0851
C   31.9415	35.1218	-0.1032
C   32.6222	36.3685	-0.1104
C   34.0419	36.4039	-0.1074
C   34.7217	37.6512	-0.1133
C   36.1414	37.6864	-0.1094
C   36.8206	38.9341	-0.1138
C   38.2403	38.9688	-0.1089
C   38.9193	40.2165	-0.1119
C   40.3389	40.2504	-0.1061
C   41.0181	41.4979	-0.108
C   42.4377	41.5304	-0.1014
C   43.117	42.7777	-0.1027
C   44.5366	42.8084	-0.0956
C   45.2161	44.0555	-0.0964
C   46.6357	44.084	-0.0892
C   47.3154	45.3308	-0.0897
C   48.735	45.3569	-0.0827
C   49.415	46.6033	-0.0831
C   33.9843	38.8647	-0.116
C   36.0831	40.1476	-0.1167
C   36.7619	41.3953	-0.1202
C   38.1816	41.43	-0.1151
C   38.8603	42.6777	-0.1174
C   40.2799	42.7113	-0.1115
C   40.9588	43.9589	-0.1129
C   42.3784	43.9911	-0.1063
C   43.0576	45.2384	-0.1071
C   44.4772	45.2688	-0.1
C   45.1566	46.5159	-0.1003
C   46.5761	46.5442	-0.0929
C   47.2558	47.7909	-0.0927
C   48.6754	47.8168	-0.0853
C   49.3555	49.0631	-0.0848
C   50.7751	49.0866	-0.0778
C   38.1213	43.8906	-0.1201
C   38.7998	45.1383	-0.1217
C   40.2194	45.1716	-0.1155
C   40.8982	46.4191	-0.1163
C   42.3178	46.4511	-0.1096
C   42.9969	47.6983	-0.1098
C   44.4165	47.7286	-0.1025
C   45.096	48.9755	-0.102
C   46.5156	49.0038	-0.0943
C   40.1579	47.6313	-0.1179
C   40.8368	48.8786	-0.1178
C   42.2564	48.9106	-0.111
C   40.0661	47.1183	3.4202
C   40.8073	48.3301	3.4167
C   42.227	48.2982	3.4138
C   42.9678	49.5102	3.4094
C   44.3875	49.4799	3.4061
C   37.8436	43.482	3.4217
C   38.5849	44.6935	3.4201
C   40.0047	44.6599	3.4174
C   40.7459	45.8716	3.4151
C   42.1657	45.8394	3.4119
C   42.9067	47.0513	3.4089
C   44.3264	47.0209	3.4053
C   45.0672	48.2332	3.4015
C   46.4869	48.2049	3.3977
C   47.2275	49.4175	3.393
C   48.6471	49.3917	3.3893
C   35.6228	39.8478	3.4178
C   36.3635	41.0594	3.4179
C   37.7836	41.0244	3.4163
C   38.5245	42.2359	3.4155
C   39.9445	42.2019	3.4129
C   40.6854	43.4137	3.4115
C   42.1053	43.3811	3.408
C   42.8462	44.593	3.4061
C   44.266	44.5624	3.4021
C   45.0068	45.7745	3.3997
C   46.4266	45.7461	3.3954
C   47.1673	46.9586	3.3924
C   48.587	46.9326	3.3883
C   49.3275	48.1455	3.3846
C   50.7472	48.122	3.3812
C   51.4874	49.3354	3.3771
C   33.405	36.2139	3.4085
C   34.1445	37.4261	3.4102
C   35.5647	37.3905	3.4102
C   36.3049	38.6024	3.411
C   37.7251	38.5672	3.4098
C   38.4656	39.7789	3.4096
C   39.8858	39.7446	3.4071
C   40.6264	40.9564	3.4063
C   42.0464	40.9235	3.4027
C   42.787	42.1355	3.4014
C   44.207	42.1044	3.3971
C   44.9475	43.3166	3.3956
C   46.3675	43.2878	3.391
C   47.108	44.5003	3.3892
C   48.5279	44.4741	3.3848
C   49.2683	45.6869	3.3826
C   31.1921	32.5779	3.3938
C   31.9294	33.7914	3.3967
C   33.3496	33.7563	3.3983
C   34.0883	34.969	3.4006
C   35.5086	34.9337	3.4012
C   36.2482	36.1459	3.4028
C   37.6685	36.1107	3.402
C   38.4086	37.3226	3.4025
C   39.8289	37.2881	3.4003
C   40.5692	38.5	3.4
C   41.9894	38.4667	3.3964
C   42.7297	39.6787	3.3956
C   44.1499	39.6473	3.3912
C   44.8901	40.8595	3.3902
C   46.3102	40.8304	3.3855
C   47.0503	42.0429	3.3844
C   28.9871	28.9382	3.3774
C   29.721	30.1536	3.3798
C   31.1411	30.1193	3.3823
C   31.8769	31.3337	3.385
C   33.2972	31.299	3.3871
C   34.0346	32.5124	3.3898
C   35.4551	32.4775	3.3911
C   36.1938	33.69	3.3932
C   37.6143	33.6551	3.3932
C   38.3538	34.8672	3.3943
C   39.7743	34.8326	3.3927
C   40.5142	36.0446	3.3929
C   41.9347	36.011	3.3897
C   42.6745	37.2231	3.3892
C   44.095	37.1912	3.3851
C   44.8348	38.4035	3.3843
C   26.7903	25.2936	3.3648
C   27.521	26.5109	3.3652
C   28.941	26.478	3.3681
C   29.6734	27.6943	3.3692
C   31.0936	27.6607	3.372
C   31.8278	28.8759	3.3738
C   33.2481	28.8419	3.3764
C   33.9842	30.0561	3.3787
C   35.4047	30.0216	3.3807
C   36.1423	31.2348	3.3829
C   37.5629	31.2001	3.3839
C   38.3016	32.4126	3.3854
C   39.7224	32.3781	3.3848
C   40.4617	33.5902	3.3853
C   41.8824	33.5565	3.3831
C   42.6219	34.7686	3.3827
C   29.6285	25.2347	3.3609
C   31.0487	25.2021	3.3641
C   31.7817	26.4181	3.3644
C   33.2022	26.3849	3.3675
C   33.9369	27.5998	3.3687
C   35.3575	27.5661	3.3715
C   36.0938	28.78	3.373
C   37.5146	28.7458	3.3751
C   38.2523	29.9588	3.3765
C   39.6732	29.9245	3.3772
C   40.4118	31.1369	3.3778
C   33.8921	25.1434	3.3609
C   35.3128	25.1107	3.3643
C   36.0481	26.3252	3.3647
C   37.4689	26.2919	3.3678
C   38.2057	27.5054	3.3686
C   34.3761	19.1665	-0.0527
C   35.0616	20.4113	-0.0573
C   36.4814	20.4409	-0.0548
C   37.1659	21.6864	-0.0597
C   38.5854	21.7171	-0.0579
C   39.2688	22.9635	-0.0629
C   40.6881	22.9952	-0.0615
C   41.3704	24.2424	-0.0659
C   42.7896	24.2748	-0.0642
C   36.4382	22.9056	-0.0577
C   37.1225	24.1513	-0.0634
C   38.542	24.1832	-0.0615
C   31.2092	0.646646	-0.0667
C   32.6288	0.665202	-0.0661
C   33.31	1.91069	-0.0684
C   34.7296	1.93045	-0.0689
C   35.4106	3.17621	-0.0714
C   26.9489	0.578696	-0.0677
C   28.3686	0.59729	-0.0643
C   29.0502	1.8425	-0.0653
C   30.4698	1.86092	-0.063
C   31.1516	3.10611	-0.0645
C   32.5712	3.12517	-0.0633
C   33.253	4.37053	-0.0652
C   34.6726	4.39093	-0.065
C   35.3542	5.63661	-0.0673
C   36.7737	5.65884	-0.0681
C   37.4549	6.90491	-0.0706
C   24.1082	0.527455	-0.0711
C   24.7896	1.77286	-0.0706
C   26.2093	1.79268	-0.0656
C   26.8913	3.03771	-0.0656
C   28.311	3.05679	-0.0617
C   28.9935	4.30164	-0.0625
C   30.4133	4.32081	-0.0597
C   31.096	5.56569	-0.0612
C   32.5156	5.58567	-0.0594
C   33.1982	6.83082	-0.0616
C   34.6178	6.85218	-0.0607
C   35.3	8.09774	-0.0634
C   36.7196	8.12083	-0.0633
C   37.4013	9.36686	-0.0662
C   38.8209	9.39191	-0.0668
C   39.5021	10.6384	-0.0697
C   26.1521	4.25183	-0.0624
C   26.8355	5.49629	-0.0625
C   28.2553	5.51629	-0.0582
C   28.9391	6.76064	-0.0594
C   30.3589	6.78094	-0.0562
C   31.0426	8.02547	-0.0583
C   32.4624	8.04668	-0.056
C   33.1458	9.29161	-0.0588
C   34.5654	9.31414	-0.0571
C   35.2482	10.5596	-0.0603
C   36.6679	10.5837	-0.0593
C   37.3501	11.8297	-0.0626
C   38.7697	11.8556	-0.0624
C   39.4514	13.1021	-0.0656
C   40.8709	13.1299	-0.0663
C   41.5522	14.3768	-0.0693
C   28.2019	7.97568	-0.0551
C   28.8869	9.21953	-0.0571
C   30.3068	9.24124	-0.0536
C   30.9915	10.4854	-0.0565
C   32.4114	10.5081	-0.0536
C   33.0955	11.7528	-0.057
C   34.5152	11.7767	-0.0546
C   35.1986	13.0221	-0.0581
C   36.6183	13.0474	-0.0565
C   37.3011	14.2933	-0.0599
C   38.7208	14.3202	-0.0591
C   39.403	15.5666	-0.0625
C   40.8226	15.5952	-0.0626
C   41.5043	16.8421	-0.0659
C   42.9237	16.8726	-0.0666
C   43.6051	18.12	-0.0692
C   30.2568	11.7017	-0.0521
C   30.9424	12.9456	-0.0556
C   32.3623	12.9698	-0.0523
C   33.0472	14.2144	-0.056
C   34.467	14.2398	-0.0531
C   35.1511	15.4849	-0.0568
C   36.5709	15.5116	-0.0546
C   37.2544	16.7573	-0.0584
C   38.674	16.7854	-0.057
C   39.3569	18.0317	-0.0609
C   40.7763	18.0614	-0.0604
C   41.4585	19.3083	-0.064
C   42.8778	19.3395	-0.064
C   43.5595	20.5869	-0.0668
C   44.9787	20.6193	-0.0665
C   45.6602	21.8669	-0.0679
C   47.0794	21.8998	-0.0667
C   47.7613	23.1471	-0.0665
C   32.3152	15.4318	-0.0517
C   33.0008	16.6761	-0.0556
C   34.4207	16.7031	-0.0524
C   35.1056	17.948	-0.0564
C   36.5254	17.9762	-0.0539
C   37.2095	19.2218	-0.0581
C   38.6291	19.2511	-0.0565
C   39.3124	20.4974	-0.0609
C   40.7318	20.5281	-0.06
C   41.4142	21.7751	-0.064
C   42.8334	21.807	-0.0632
C   43.5152	23.0545	-0.0661
C   44.9344	23.0871	-0.0647
C   45.6161	24.3346	-0.0661
C   47.0353	24.3671	-0.0639
C   33.0273	16.5567	3.3556
C   33.7618	17.7724	3.3521
C   35.1824	17.7442	3.3565
C   35.9175	18.9593	3.3536
C   37.3383	18.93	3.3583
C   38.0743	20.1444	3.3562
C   39.4952	20.1136	3.3612
C   40.232	21.3273	3.3597
C   41.6531	21.2952	3.3645
C   42.3906	22.5083	3.363
C   43.8118	22.4751	3.3667
C   44.5497	23.6879	3.3647
C   45.9709	23.6544	3.3668
C   46.7085	24.8673	3.3639
C   48.1297	24.8342	3.3646
C   30.8258	12.9088	3.3556
C   31.5605	14.1247	3.3517
C   32.9808	14.0995	3.356
C   33.7162	15.3149	3.3523
C   35.1367	15.2885	3.357
C   35.8727	16.5033	3.3536
C   37.2934	16.4755	3.3588
C   38.0298	17.6898	3.356
C   39.4507	17.6605	3.3616
C   40.1878	18.8742	3.3594
C   41.6088	18.8432	3.3652
C   42.3464	20.0563	3.3633
C   43.7676	20.0237	3.3684
C   44.5056	21.2365	3.3661
C   45.9268	21.2029	3.3698
C   46.6647	22.4157	3.3667
C   28.6214	9.25651	3.3573
C   29.3566	10.4725	3.3527
C   30.7766	10.45	3.3564
C   31.5123	11.6656	3.3524
C   32.9325	11.6421	3.3568
C   33.6688	12.8572	3.3531
C   35.0892	12.8324	3.3581
C   35.8259	14.047	3.3546
C   37.2465	14.0207	3.3603
C   37.9837	15.2348	3.3571
C   39.4044	15.2068	3.3634
C   40.142	16.4204	3.3607
C   41.5629	16.3905	3.3673
C   42.3009	17.6036	3.365
C   43.7219	17.5718	3.3714
C   44.4603	18.7845	3.3689
C   26.4129	5.60167	3.3634
C   27.1495	6.81718	3.3577
C   28.5692	6.7966	3.3597
C   29.3056	8.01213	3.3548
C   30.7255	7.99116	3.3581
C   31.4621	9.2064	3.3539
C   32.8822	9.18449	3.3584
C   33.6193	10.3993	3.3546
C   35.0395	10.376	3.3599
C   35.7771	11.5903	3.3565
C   37.1975	11.5654	3.3626
C   37.9354	12.7792	3.3593
C   39.356	12.7525	3.3662
C   40.0942	13.9659	3.3633
C   41.5149	13.937	3.3706
C   42.2534	15.15	3.3681
C   24.1986	1.94733	3.3732
C   24.9374	3.16168	3.3673
C   26.3569	3.14161	3.3671
C   27.0951	4.3564	3.3615
C   28.5147	4.33691	3.3629
C   29.2524	5.55188	3.3579
C   30.6722	5.53219	3.3609
C   31.4099	6.74705	3.3565
C   32.8298	6.72649	3.3609
C   33.5677	7.94101	3.357
C   34.9878	7.91907	3.3625
C   35.726	9.13314	3.3591
C   37.1463	9.10945	3.3656
C   37.8849	10.3231	3.3624
C   39.3052	10.2973	3.3697
C   40.0441	11.5106	3.3668
C   24.8795	0.701557	3.3703
C   26.2991	0.681936	3.3695
C   27.0384	1.89616	3.365
C   28.458	1.87739	3.3659
C   29.1969	3.09185	3.3615
C   30.6166	3.07311	3.364
C   31.3553	4.28758	3.36
C   32.7751	4.2681	3.364
C   33.5138	5.48236	3.3604
C   34.9337	5.4615	3.3659
C   35.6727	6.6754	3.3626
C   37.0927	6.6527	3.3693
C   37.8319	7.86619	3.3663
C   29.1395	0.632088	3.3642
C   30.5591	0.613869	3.3661
C   31.2986	1.82806	3.3632
C   32.7182	1.8093	3.3668
C   33.4577	3.02334	3.364
C   34.8775	3.00329	3.3692
C   35.617	4.21704	3.3666
C   33.3998	0.564055	3.3665
C   37.4251	23.838	3.3625
C   35.2264	20.1998	3.3571
C   35.9611	21.415	3.3551
C   37.3819	21.3841	3.3594
C   38.1177	22.5984	3.3582
C   39.5387	22.5664	3.3625
C   40.2755	23.7799	3.3617
C   41.6967	23.7469	3.3653
C   43.8556	24.9264	3.3664
C   43.4713	25.5224	-0.0671
C   44.8905	25.5549	-0.0646
C   45.5722	26.8025	-0.066
C   46.9914	26.8344	-0.0629
C   47.6737	28.0815	-0.063
C   49.0931	28.1123	-0.06
C   49.7763	29.3586	-0.0597
C   51.1959	29.3881	-0.0574
C   51.8798	30.6338	-0.0571
C   39.225	25.4298	-0.0671
C   40.6444	25.4624	-0.065
C   41.3263	26.7097	-0.0695
C   42.7455	26.7425	-0.0668
C   43.4269	27.9902	-0.0697
C   44.8461	28.0226	-0.0662
C   45.5276	29.27	-0.0675
C   46.947	29.3013	-0.0636
C   47.629	30.5483	-0.064
C   49.0485	30.578	-0.0604
C   49.7311	31.8244	-0.0605
C   51.1507	31.8526	-0.0579
C   51.834	33.0984	-0.058
C   53.2538	33.1253	-0.0562
C   53.9377	34.3705	-0.0563
C   38.4979	26.6492	-0.0673
C   39.1801	27.8961	-0.0732
C   40.5995	27.9293	-0.0703
C   41.2808	29.1769	-0.0748
C   42.7001	29.2098	-0.071
C   43.381	30.4575	-0.0737
C   44.8004	30.4896	-0.0692
C   45.4815	31.737	-0.0705
C   46.9009	31.7676	-0.0658
C   47.5825	33.0145	-0.0664
C   49.002	33.0433	-0.0623
C   49.6841	34.2898	-0.0627
C   51.1037	34.3168	-0.0595
C   51.7863	35.5628	-0.0597
C   53.206	35.5882	-0.0575
C   53.8891	36.8336	-0.0577
C   55.3089	36.8577	-0.0561
C   55.9928	38.1025	-0.0565
C   42.6526	31.6764	-0.0764
C   43.3331	32.924	-0.0789
C   44.7526	32.9557	-0.0735
C   45.4333	34.2031	-0.0747
C   46.8528	34.233	-0.0694
C   47.5339	35.48	-0.07
C   48.9534	35.5079	-0.0653
C   49.6349	36.7545	-0.0658
C   51.0545	36.7805	-0.0619
C   51.7364	38.0265	-0.0623
C   53.1561	38.0508	-0.0593
C   53.8386	39.2963	-0.0599
C   55.2583	39.319	-0.0577
C   55.9415	40.564	-0.0586
C   57.3612	40.5853	-0.0573
C   58.0448	41.8299	-0.0589
C   44.7023	35.4207	-0.0786
C   45.3827	36.668	-0.0798
C   46.8022	36.6975	-0.0738
C   47.4828	37.9444	-0.0746
C   48.9024	37.9717	-0.0691
C   49.5834	39.2182	-0.0697
C   51.0029	39.2435	-0.0651
C   51.6844	40.4895	-0.0658
C   53.104	40.5128	-0.062
C   53.786	41.7584	-0.063
C   55.2056	41.7798	-0.0602
C   55.888	43.025	-0.0617
C   57.3076	43.0451	-0.0599
C   57.9902	44.29	-0.0622
C   59.4099	44.3092	-0.0614
C   60.0924	45.5541	-0.0646
C   46.7491	39.1608	-0.0789
C   47.4294	40.4077	-0.0797
C   48.8489	40.4345	-0.0736
C   49.5295	41.681	-0.0744
C   50.9491	41.7055	-0.069
C   51.63	42.9516	-0.07
C   53.0496	42.974	-0.0655
C   53.731	44.2197	-0.0668
C   55.1505	44.2402	-0.0633
C   55.8322	45.4856	-0.0652
C   57.2518	45.5047	-0.0628
C   57.9335	46.7499	-0.0651
C   59.3531	46.7684	-0.0639
C   60.0347	48.0136	-0.0668
C   61.4544	48.0321	-0.0667
C   62.1357	49.2775	-0.0698
C   48.793	42.8962	-0.0784
C   49.4733	44.1426	-0.0792
C   50.8928	44.1666	-0.0732
C   51.5734	45.4128	-0.0741
C   52.9929	45.4345	-0.069
C   53.6738	46.6802	-0.0701
C   55.0934	46.7001	-0.066
C   55.7745	47.9456	-0.0675
C   57.1941	47.9642	-0.0646
C   57.8755	49.2095	-0.0664
C   59.2951	49.2277	-0.0647
C   50.8346	46.6269	-0.0765
C   51.5149	47.873	-0.0769
C   52.9345	47.8944	-0.0712
C   53.6153	49.1401	-0.0716
C   55.035	49.1597	-0.067
C   47.7175	25.6143	-0.0638
C   49.1368	25.6461	-0.0613
C   49.8201	26.8926	-0.0605
C   48.8666	26.0477	3.3614
C   52.907	49.3141	3.3748
C   50.6881	45.6632	3.3789
C   51.4283	46.8763	3.3764
C   52.8481	46.8549	3.3737
C   53.5881	48.0685	3.371
C   55.0078	48.0489	3.3697
C   55.7476	49.2628	3.3668
C   57.1672	49.2443	3.3671
C   48.4704	42.0162	3.3798
C   49.2105	43.2291	3.3786
C   50.6305	43.2048	3.3747
C   51.3704	44.4181	3.3735
C   52.7903	44.3961	3.3705
C   53.53	45.6097	3.3692
C   54.9498	45.5897	3.3675
C   55.6894	46.8036	3.3662
C   57.109	46.7849	3.366
C   57.8486	47.999	3.3646
C   59.2682	47.9808	3.3661
C   60.0078	49.195	3.3647
C   61.4274	49.1764	3.3679
C   46.2552	38.3739	3.3797
C   46.9948	39.5865	3.3789
C   48.4152	39.5592	3.3746
C   49.1547	40.7721	3.3738
C   50.5749	40.7473	3.37
C   51.3143	41.9606	3.3694
C   52.7344	41.9379	3.3664
C   53.4735	43.1516	3.3658
C   54.8935	43.1307	3.364
C   55.6324	44.3449	3.3636
C   57.0522	44.3254	3.363
C   57.791	45.5398	3.3629
C   59.2107	45.521	3.3638
C   59.9496	46.7355	3.3639
C   61.3692	46.7167	3.3665
C   62.1085	47.931	3.3667
C   44.0425	34.7363	3.3792
C   44.7819	35.9487	3.3784
C   46.2025	35.9185	3.3744
C   46.9417	37.1311	3.3736
C   48.3623	37.1032	3.3697
C   49.1013	38.3162	3.3691
C   50.5217	38.2905	3.3658
C   51.2605	39.5039	3.3653
C   52.6808	39.4802	3.3627
C   53.4192	40.6941	3.3623
C   54.8393	40.6722	3.3605
C   55.5774	41.8865	3.3604
C   56.9974	41.866	3.3597
C   57.7352	43.0807	3.36
C   59.155	43.061	3.3605
C   59.8928	44.2759	3.3613
C   41.8328	31.103	3.3769
C   42.5717	32.3153	3.3765
C   43.9927	32.2825	3.3741
C   44.7316	33.495	3.3732
C   46.1524	33.464	3.37
C   46.8911	34.6768	3.369
C   48.3118	34.648	3.3658
C   49.0502	35.8612	3.3651
C   50.4708	35.8344	3.3623
C   51.2089	37.0481	3.3619
C   52.6294	37.0232	3.3597
C   53.3672	38.2373	3.3595
C   54.7875	38.214	3.358
C   55.5247	39.4286	3.3579
C   56.9448	39.4067	3.3571
C   57.6816	40.6218	3.3574
C   39.6267	27.4716	3.3706
C   40.3646	28.6844	3.3711
C   41.7857	28.6505	3.3716
C   42.5241	29.8629	3.3712
C   43.9452	29.8298	3.3701
C   44.6836	31.0423	3.369
C   46.1047	31.0106	3.3668
C   46.8428	32.2235	3.3655
C   48.2637	32.1936	3.363
C   49.0015	33.407	3.362
C   50.4223	33.379	3.3599
C   51.1596	34.5929	3.3593
C   52.5802	34.5666	3.3577
C   53.3172	35.781	3.3575
C   54.7377	35.7562	3.3563
C   55.4741	36.971	3.3562
C   38.1611	25.0521	3.3624
C   39.5822	25.019	3.3656
C   40.3194	26.2322	3.3656
C   41.7406	26.1986	3.3677
C   42.4785	27.4113	3.367
C   43.8997	27.3778	3.3675
C   44.6378	28.5904	3.366
C   46.059	28.5579	3.3652
C   46.7967	29.7709	3.3633
C   48.2178	29.7399	3.3617
C   48.9549	30.9534	3.3602
C   50.3759	30.924	3.3586
C   51.1125	32.1382	3.3577
C   52.5332	32.1104	3.3565
C   53.2693	33.325	3.3561
C   42.4343	24.9598	3.3643
C   44.5934	26.1391	3.3646
C   46.0147	26.1059	3.3651
C   46.7522	27.3189	3.3628
C   48.1734	27.2868	3.3622
C   48.9102	28.5004	3.3599
C   50.3312	28.4696	3.3589
C   51.0673	29.6839	3.3573
C   43.9875	0.8818	-0.1053
C   45.4071	0.912015	-0.1085
C   46.0864	2.1592	-0.1119
C   39.7283	0.793785	-0.0884
C   41.1479	0.819537	-0.0919
C   41.8277	2.06625	-0.0956
C   43.2473	2.09442	-0.099
C   43.9269	3.34143	-0.1022
C   45.3465	3.37177	-0.1053
C   46.0258	4.61904	-0.1079
C   47.4454	4.65117	-0.1106
C   48.1245	5.89868	-0.1126
C   35.4689	0.7164	-0.0741
C   36.8885	0.737625	-0.0761
C   37.569	1.98371	-0.0794
C   38.9886	2.00716	-0.0821
C   39.6688	3.25362	-0.0852
C   41.0884	3.27953	-0.0884
C   41.7683	4.5263	-0.0912
C   43.1879	4.55465	-0.0945
C   43.8676	5.80171	-0.0971
C   45.2872	5.83226	-0.1002
C   45.9668	7.07957	-0.1024
C   47.3863	7.11197	-0.1051
C   48.0657	8.35952	-0.1067
C   49.4853	8.39334	-0.1087
C   50.1646	9.64101	-0.1094
C   52.2636	10.9234	-0.1101
C   36.8302	3.1978	-0.0728
C   37.5109	4.44391	-0.0754
C   38.9305	4.46772	-0.0776
C   39.611	5.71419	-0.0803
C   41.0305	5.74041	-0.083
C   41.7107	6.98721	-0.0855
C   43.1303	7.01581	-0.0885
C   43.8103	8.26292	-0.0909
C   45.2298	8.29371	-0.0939
C   45.9096	9.54109	-0.0959
C   47.3292	9.5737	-0.0986
C   48.0088	10.8213	-0.0997
C   49.4284	10.8553	-0.1017
C   50.108	12.1029	-0.1017
C   51.5276	12.1377	-0.1027
C   52.2075	13.3852	-0.1012
C   53.6271	13.4203	-0.1013
C   54.3079	14.6673	-0.0983
C   38.8745	6.92928	-0.0721
C   39.5553	8.17575	-0.0748
C   40.9748	8.20238	-0.0769
C   41.6554	9.44922	-0.0795
C   43.0749	9.47814	-0.0821
C   43.7552	10.7253	-0.0845
C   45.1747	10.7563	-0.0872
C   45.8548	12.0038	-0.089
C   47.2743	12.0366	-0.0914
C   47.9542	13.2842	-0.0922
C   49.3737	13.3182	-0.0938
C   50.0538	14.5659	-0.093
C   51.4733	14.6005	-0.0937
C   52.154	15.8477	-0.0913
C   53.5735	15.8825	-0.091
C   54.2554	17.129	-0.0873
C   55.6751	17.1636	-0.0866
C   56.3587	18.4091	-0.0822
C   40.9216	10.6656	-0.0712
C   41.6026	11.9124	-0.074
C   43.0221	11.9417	-0.076
C   43.7026	13.189	-0.0784
C   45.1221	13.2203	-0.0807
C   45.8025	14.4679	-0.0823
C   47.2219	14.5007	-0.0842
C   47.9022	15.7484	-0.0844
C   49.3216	15.7823	-0.0854
C   50.0023	17.0299	-0.084
C   51.4218	17.0642	-0.084
C   52.1034	18.3111	-0.0811
C   53.523	18.3453	-0.0805
C   54.2062	19.5913	-0.0766
C   55.6259	19.6252	-0.0758
C   56.311	20.87	-0.0718
C   57.7309	20.9037	-0.0711
C   58.418	22.1473	-0.0675
C   42.9717	14.4066	-0.0707
C   43.6527	15.6539	-0.0732
C   45.072	15.6856	-0.0747
C   45.7528	16.9332	-0.0762
C   47.1721	16.9662	-0.0773
C   47.8529	18.2138	-0.0772
C   49.2722	18.2475	-0.0773
C   49.9538	19.4948	-0.0756
C   51.3732	19.5286	-0.0748
C   52.056	20.7751	-0.072
C   53.4755	20.8086	-0.071
C   54.16	22.054	-0.0677
C   55.5798	22.087	-0.0668
C   56.2661	23.3313	-0.0638
C   57.686	23.3639	-0.0633
C   58.374	24.607	-0.0608
C   59.7942	24.6392	-0.0605
C   45.0244	18.152	-0.0699
C   45.7055	19.3996	-0.0713
C   47.1247	19.4326	-0.0713
C   47.8062	20.6802	-0.071
C   49.2254	20.7135	-0.0702
C   49.9078	21.9604	-0.0685
C   51.3272	21.9935	-0.0672
C   52.0109	23.2395	-0.0648
C   53.4305	23.272	-0.0636
C   54.1159	24.5169	-0.0612
C   55.5357	24.5488	-0.0605
C   49.1806	23.1798	-0.0647
C   49.8636	24.4264	-0.0634
C   51.283	24.4585	-0.0616
C   48.0858	22.382	3.3687
C   48.8231	23.5952	3.3649
C   50.2441	23.562	3.3657
C   50.9803	24.7759	3.3619
C   52.4011	24.7435	3.3621
C   45.8813	18.7512	3.3741
C   46.6197	19.9638	3.3709
C   48.0407	19.9298	3.3744
C   48.7786	21.1426	3.3702
C   50.1996	21.1086	3.3721
C   50.9364	22.3221	3.3675
C   52.3572	22.2886	3.3683
C   53.0926	23.5031	3.3639
C   54.5132	23.4702	3.3643
C   55.2472	24.6856	3.3607
C   56.6676	24.6534	3.3609
C   43.6742	15.119	3.3754
C   44.413	16.3316	3.3728
C   45.8338	16.2988	3.3794
C   46.5727	17.5112	3.3761
C   47.9936	17.4772	3.3812
C   48.7322	18.6897	3.3769
C   50.153	18.6552	3.3801
C   50.8908	19.8682	3.3749
C   52.3115	19.8339	3.3767
C   53.0479	21.0477	3.3713
C   54.4685	21.0138	3.3722
C   55.2033	22.2287	3.3671
C   56.6236	22.1953	3.3676
C   57.3568	23.4112	3.3634
C   58.777	23.3785	3.3638
C   59.5085	24.5953	3.3604
C   41.4645	11.4826	3.3748
C   42.2036	12.6955	3.3721
C   43.6241	12.6652	3.3803
C   44.3633	13.8778	3.3776
C   45.784	13.8454	3.3852
C   46.5233	15.0577	3.3821
C   47.944	15.0238	3.3884
C   48.6832	16.2361	3.3844
C   50.1039	16.2013	3.3889
C   50.8426	17.4139	3.3837
C   52.2632	17.379	3.3865
C   53.0008	18.5922	3.3806
C   54.4212	18.5576	3.3821
C   55.1573	19.7717	3.376
C   56.5776	19.7375	3.3769
C   57.3119	20.9527	3.3712
C   39.2521	7.8413	3.374
C   39.9915	9.05442	3.3712
C   41.4117	9.02715	3.3795
C   42.1512	10.2399	3.3769
C   43.5715	10.2102	3.3855
C   44.3112	11.4227	3.383
C   45.7315	11.3908	3.3912
C   46.4713	12.6031	3.3884
C   47.8917	12.5694	3.3956
C   48.6315	13.7815	3.3919
C   50.0519	13.7468	3.3975
C   50.7914	14.959	3.3928
C   52.2118	14.9238	3.3966
C   52.9505	16.1364	3.3908
C   54.3709	16.1013	3.3931
C   55.1084	17.3147	3.3866
C   37.0369	4.19511	3.3732
C   37.7766	5.4085	3.3707
C   39.1966	5.38428	3.3784
C   39.9364	6.59732	3.376
C   41.3565	6.57061	3.3845
C   42.0964	7.78334	3.3821
C   43.5165	7.75412	3.3909
C   44.2565	8.96658	3.3885
C   45.6767	8.93505	3.3971
C   46.4168	10.1473	3.3945
C   47.837	10.1139	3.4022
C   48.5771	11.3259	3.399
C   49.9973	11.2912	3.4053
C   50.7374	12.5032	3.4012
C   52.1576	12.4679	3.4058
C   52.8972	13.6801	3.4007
C   34.8195	0.544438	3.3713
C   35.5594	1.75815	3.3699
C   36.9791	1.73673	3.3762
C   37.7192	2.95008	3.3747
C   39.139	2.92635	3.3823
C   39.8792	4.13935	3.3807
C   41.2991	4.11307	3.389
C   42.0394	5.32576	3.3872
C   43.4593	5.29694	3.3959
C   44.1996	6.50936	3.3939
C   45.6196	6.47821	3.4024
C   46.36	7.69039	3.4002
C   47.78	7.65732	3.4079
C   48.5205	8.8693	3.4053
C   49.9405	8.83483	3.4119
C   50.681	10.0467	3.4085
C   37.6602	0.491074	3.3773
C   39.0798	0.467625	3.3844
C   39.8202	1.68066	3.3842
C   41.2399	1.65469	3.3922
C   41.9804	2.86737	3.3914
C   43.4002	2.83887	3.3997
C   44.1408	4.05126	3.3986
C   45.5606	4.02049	3.4067
C   46.3013	5.23262	3.4051
C   47.7211	5.19996	3.4126
C   48.462	6.41186	3.4106
C   41.9202	0.4084	3.3938
C   43.3399	0.380112	3.4017
C   44.0805	1.59253	3.4017
C   45.5002	1.56206	3.4094
C   46.2411	2.77418	3.4087
C   53.2996	30.6621	-0.0557
C   53.9843	31.9071	-0.0556
C   55.4042	31.9343	-0.0549
C   56.0896	33.1786	-0.0548
C   57.5096	33.2048	-0.0546
C   58.1958	34.4485	-0.0546
C   59.616	34.4737	-0.0547
C   60.3029	35.7168	-0.0551
C   61.7231	35.7412	-0.0557
C   62.4104	36.9839	-0.057
C   63.8307	37.0079	-0.0583
C   64.5178	38.2505	-0.0609
C   65.9382	38.2747	-0.0634
C   66.6246	39.5176	-0.0676
C   68.045	39.5428	-0.0712
C   68.7302	40.7864	-0.0769
C   55.3575	34.396	-0.0553
C   56.0421	35.6407	-0.0554
C   57.4621	35.6651	-0.0549
C   58.1474	36.9091	-0.0552
C   59.5675	36.9325	-0.0552
C   60.2534	38.176	-0.0562
C   61.6735	38.1987	-0.0569
C   62.3596	39.4419	-0.059
C   63.7798	39.4645	-0.0607
C   64.4654	40.7078	-0.0643
C   65.8856	40.731	-0.0671
C   66.5703	41.9748	-0.0722
C   67.9904	41.9993	-0.076
C   68.6738	43.2438	-0.0821
C   70.0938	43.2702	-0.0866
C   70.7759	44.5156	-0.0931
C   57.4126	38.1252	-0.0556
C   58.0971	39.3695	-0.0565
C   59.5171	39.3913	-0.0564
C   60.2019	40.6352	-0.0582
C   61.6219	40.6565	-0.059
C   62.3066	41.9003	-0.0621
C   63.7266	41.9217	-0.0639
C   64.4107	43.1658	-0.0683
C   65.8307	43.1881	-0.0713
C   66.5137	44.4328	-0.0767
C   67.9336	44.4566	-0.0806
C   68.6154	45.702	-0.0865
C   70.0353	45.728	-0.0908
C   70.7161	46.9741	-0.0966
C   72.1358	47.0024	-0.1007
C   72.8158	48.249	-0.1058
C   59.4646	41.8502	-0.0585
C   60.1482	43.0946	-0.0612
C   61.5681	43.1146	-0.0619
C   62.2514	44.3591	-0.0657
C   63.6712	44.3795	-0.0675
C   64.3538	45.6244	-0.0721
C   65.7736	45.646	-0.0749
C   66.4552	46.8914	-0.0801
C   67.875	46.9149	-0.0837
C   68.5557	48.1609	-0.0889
C   69.9754	48.1866	-0.0928
C   70.6555	49.4332	-0.0975
C   72.0751	49.4613	-0.1012
C   61.5121	45.5732	-0.0649
C   62.1941	46.8182	-0.0687
C   63.6138	46.838	-0.0702
C   64.2952	48.0834	-0.0744
C   65.7149	48.1046	-0.0769
C   66.3957	49.3505	-0.0812
C   67.8153	49.3738	-0.0844
C   63.5553	49.2971	-0.0709
C   60.4835	25.8813	-0.0587
C   56.2226	25.7928	-0.0586
C   57.6427	25.8241	-0.0582
C   58.3308	27.0671	-0.0569
C   59.7511	27.0978	-0.0567
C   60.4403	28.3399	-0.0558
C   61.8607	28.3698	-0.0558
C   62.5509	29.6112	-0.0555
C   51.9674	25.7042	-0.06
C   53.387	25.7354	-0.0587
C   54.0727	26.9802	-0.0574
C   55.4926	27.0106	-0.0568
C   56.1794	28.2545	-0.0558
C   57.5995	28.2843	-0.0556
C   58.2872	29.5274	-0.055
C   59.7075	29.5564	-0.055
C   60.3962	30.7988	-0.0547
C   61.8166	30.8269	-0.0549
C   62.5059	32.0686	-0.0551
C   63.9265	32.096	-0.0557
C   64.6162	33.3372	-0.0569
C   51.2396	26.9234	-0.0585
C   51.924	28.169	-0.0576
C   53.3437	28.1988	-0.0563
C   54.0291	29.4436	-0.0557
C   55.449	29.4724	-0.0552
C   56.1353	30.7165	-0.0548
C   57.5554	30.7445	-0.0547
C   58.2424	31.9879	-0.0545
C   59.6627	32.015	-0.0545
C   60.3504	33.2578	-0.0546
C   61.7708	33.284	-0.055
C   62.4591	34.5262	-0.0557
C   63.8796	34.5518	-0.0567
C   64.5681	35.7937	-0.0585
C   65.9886	35.8192	-0.0604
C   66.6767	37.0612	-0.0638
C   50.2876	26.0156	3.3612
C   51.0235	27.2298	3.3585
C   52.4444	27.1988	3.3582
C   53.1792	28.4138	3.3564
C   54.5999	28.3838	3.3562
C   55.3338	29.5996	3.3552
C   56.7543	29.5706	3.3551
C   57.4874	30.7869	3.3547
C   58.9077	30.7589	3.3546
C   59.64	31.9759	3.3545
C   61.0601	31.9488	3.3547
C   61.7917	33.1663	3.355
C   63.2116	33.14	3.3558
C   63.9427	34.358	3.3567
C   65.3625	34.3319	3.3587
C   66.0935	35.5499	3.3605
C   53.136	25.9584	3.359
C   54.5566	25.9269	3.359
C   55.2903	27.1426	3.3569
C   56.7107	27.1119	3.357
C   57.4433	28.3284	3.3557
C   58.8636	28.2985	3.3557
C   59.5952	29.5157	3.355
C   61.0153	29.4868	3.3551
C   61.746	30.7046	3.3549
C   63.1659	30.6766	3.3555
C   63.896	31.8949	3.3558
C   57.4001	25.8698	3.3583
C   58.8204	25.8383	3.3585
C   59.5517	27.0555	3.3567
C   60.9717	27.0249	3.3569
C   61.7019	28.2428	3.3557
C   63.5281	47.9113	3.371
C   64.2678	49.1252	3.3713
C   65.6874	49.104	3.3772
C   61.3124	44.2564	3.3634
C   62.0506	45.4712	3.3647
C   63.4701	45.4512	3.3685
C   64.2089	46.6656	3.3702
C   65.6284	46.6441	3.3756
C   66.3678	47.858	3.3773
C   67.7874	47.8346	3.384
C   68.5274	49.0478	3.3854
C   69.9471	49.022	3.393
C   59.1015	40.6008	3.3576
C   59.838	41.8163	3.3585
C   61.2578	41.7956	3.36
C   61.9944	43.0111	3.3616
C   63.414	42.9902	3.3648
C   64.1513	44.2054	3.3672
C   65.5708	44.1834	3.372
C   66.3089	45.398	3.3748
C   67.7284	45.3743	3.3811
C   68.4674	46.5882	3.384
C   69.887	46.5622	3.3913
C   70.6268	47.7754	3.3937
C   72.0464	47.7471	3.4012
C   72.7868	48.9598	3.4027
C   74.2064	48.9294	3.4101
C   56.8944	36.9475	3.3556
C   57.6302	38.163	3.3557
C   59.0502	38.1404	3.3557
C   59.7856	39.3564	3.3563
C   61.2054	39.3344	3.3574
C   61.9406	40.5506	3.3587
C   63.3602	40.5286	3.3612
C   64.0957	41.7446	3.3636
C   65.5153	41.7218	3.3677
C   66.2516	42.9373	3.371
C   67.6711	42.9132	3.3766
C   68.4085	44.1279	3.3805
C   69.8281	44.1017	3.3873
C   70.5667	45.3155	3.391
C   71.9863	45.2872	3.3983
C   72.7258	46.5002	3.4013
C   54.6899	33.2985	3.3554
C   55.4255	34.5137	3.3553
C   56.8458	34.4884	3.3548
C   57.5808	35.7042	3.3549
C   59.0009	35.6799	3.3548
C   59.7352	36.8963	3.3552
C   61.1551	36.8727	3.3558
C   61.8889	38.0895	3.3568
C   63.3087	38.0662	3.3586
C   64.0425	39.283	3.3605
C   65.4621	39.2593	3.3638
C   66.1965	40.4758	3.3668
C   67.6161	40.451	3.3718
C   68.3516	41.6667	3.3758
C   69.7711	41.6402	3.3822
C   70.508	42.8549	3.3866
C   52.4881	29.6544	3.3565
C   53.2234	30.8694	3.3556
C   54.6441	30.8411	3.3552
C   55.3787	32.0566	3.3549
C   56.7992	32.0295	3.3546
C   57.5332	33.2456	3.3546
C   58.9534	33.2194	3.3545
C   59.6867	34.4361	3.3547
C   61.1067	34.4108	3.355
C   61.8394	35.628	3.3556
C   63.2592	35.6033	3.3569
C   63.9916	36.8207	3.3582
C   65.4112	36.7959	3.3608
C   66.1439	38.0133	3.3633
C   67.5634	37.9877	3.3675
C   68.2969	39.2045	3.3711
C   56.7634	1.19	-0.1418
C   58.183	1.22689	-0.141
C   58.8611	2.4747	-0.1409
C   52.5049	1.08201	-0.1327
C   53.9245	1.11719	-0.1345
C   54.6025	2.36512	-0.1364
C   56.0221	2.40134	-0.137
C   56.7003	3.6492	-0.1372
C   58.12	3.68603	-0.1362
C   58.7988	4.93348	-0.1349
C   60.2186	4.9703	-0.1324
C   60.8984	6.21716	-0.1302
C   48.2464	0.978962	-0.1201
C   49.666	1.01202	-0.1224
C   50.3446	2.25962	-0.1254
C   51.7642	2.29381	-0.1274
C   52.4425	3.54166	-0.1293
C   53.8621	3.57697	-0.1306
C   54.5404	4.82484	-0.1312
C   55.96	4.86105	-0.1314
C   56.6388	6.10865	-0.1306
C   58.0585	6.14527	-0.1295
C   58.7382	7.39235	-0.1276
C   60.158	7.4289	-0.1253
C   60.8386	8.67535	-0.1229
C   62.2585	8.71155	-0.1198
C   62.9402	9.95734	-0.1171
C   47.506	2.1911	-0.1145
C   48.1849	3.43855	-0.1173
C   49.6045	3.47182	-0.1195
C   50.2832	4.71952	-0.1214
C   51.7028	4.75397	-0.1231
C   52.3814	6.00179	-0.124
C   53.8009	6.03722	-0.1249
C   54.4798	7.28491	-0.1246
C   55.8994	7.32099	-0.1245
C   56.5789	8.5683	-0.123
C   57.9987	8.60459	-0.1219
C   58.679	9.85133	-0.1195
C   60.0989	9.88749	-0.1176
C   60.7803	11.1335	-0.1147
C   62.2003	11.1694	-0.112
C   62.883	12.4146	-0.1086
C   64.3032	12.4502	-0.1053
C   64.9876	13.6944	-0.1015
C   49.5441	5.93226	-0.1147
C   50.2231	7.17995	-0.116
C   51.6427	7.21464	-0.1174
C   52.3217	8.46235	-0.1176
C   53.7413	8.4978	-0.1181
C   54.4207	9.74529	-0.1171
C   55.8404	9.78112	-0.1168
C   56.5205	11.0282	-0.1146
C   57.9402	11.064	-0.1135
C   58.6214	12.3104	-0.1104
C   60.0413	12.3461	-0.1087
C   60.7238	13.5916	-0.105
C   62.1439	13.6271	-0.1028
C   62.8282	14.8715	-0.0986
C   64.2484	14.9068	-0.0959
C   64.9348	16.15	-0.0917
C   66.3553	16.185	-0.0884
C   67.0438	17.4269	-0.0846
C   51.5842	9.67581	-0.1106
C   53.6832	10.9587	-0.1104
C   54.3632	12.206	-0.1084
C   55.7829	12.2415	-0.108
C   56.4638	13.4882	-0.1048
C   57.8836	13.5236	-0.1038
C   58.5658	14.7695	-0.0998
C   59.9858	14.8047	-0.0984
C   60.6699	16.0494	-0.0939
C   62.0901	16.0845	-0.0922
C   62.7762	17.328	-0.0877
C   64.1966	17.3629	-0.0857
C   64.8849	18.605	-0.0816
C   66.3056	18.6397	-0.0793
C   66.996	19.8805	-0.076
C   68.4169	19.9148	-0.0735
C   69.1091	21.1545	-0.0715
C   55.7275	14.7024	-0.0978
C   56.4096	15.9485	-0.0937
C   57.8294	15.9835	-0.0928
C   58.5133	17.2286	-0.0881
C   59.9333	17.2634	-0.087
C   60.6192	18.5072	-0.0824
C   62.0394	18.5418	-0.0812
C   62.7275	19.7843	-0.077
C   64.1479	19.8186	-0.0758
C   64.838	21.0598	-0.0723
C   66.2587	21.0938	-0.071
C   66.9505	22.3339	-0.0687
C   68.3715	22.3675	-0.0674
C   69.0647	23.6067	-0.0664
C   70.4859	23.6401	-0.0651
C   71.1797	24.8787	-0.0657
C   57.7785	18.4435	-0.0814
C   58.4641	19.6878	-0.0769
C   59.8842	19.722	-0.0761
C   60.5717	20.965	-0.072
C   61.9921	20.9988	-0.0713
C   62.6816	22.2406	-0.0679
C   64.1021	22.274	-0.0673
C   64.7933	23.5147	-0.0649
C   66.2141	23.5476	-0.0644
C   66.9066	24.7874	-0.0632
C   68.3277	24.82	-0.0629
C   59.8381	22.1806	-0.067
C   60.5269	23.423	-0.064
C   61.9473	23.4558	-0.0636
C   62.6376	24.6971	-0.0613
C   64.0582	24.7294	-0.0611
C   60.9286	24.5633	3.3608
C   58.7321	20.9189	3.3718
C   59.4646	22.1352	3.3668
C   60.8845	22.102	3.3674
C   61.6152	23.3193	3.3633
C   63.0351	23.2868	3.3641
C   63.7642	24.505	3.3608
C   65.1838	24.4732	3.362
C   56.5286	17.2798	3.388
C   57.2644	18.4941	3.3814
C   58.6845	18.4596	3.3823
C   59.4184	19.6751	3.376
C   60.8383	19.641	3.3767
C   61.5703	20.8575	3.371
C   62.99	20.824	3.3718
C   63.7201	22.0417	3.3669
C   65.1397	22.0086	3.368
C   65.868	23.2273	3.3641
C   67.2874	23.1948	3.3656
C   68.0143	24.4143	3.3627
C   69.4336	24.3821	3.3649
C   54.3174	13.6447	3.4037
C   55.0561	14.8574	3.3976
C   56.4762	14.8221	3.3995
C   57.2136	16.0356	3.3927
C   58.6336	16.0005	3.394
C   59.3692	17.215	3.387
C   60.7891	17.1803	3.3879
C   61.5227	18.3959	3.381
C   62.9424	18.3616	3.3818
C   63.674	19.5783	3.3755
C   65.0935	19.5445	3.3763
C   65.823	20.7624	3.3707
C   67.2424	20.729	3.3718
C   67.9701	21.948	3.3672
C   69.3894	21.915	3.3685
C   70.1157	23.1348	3.3651
C   52.1011	10.0114	3.4136
C   52.8413	11.2233	3.4093
C   54.2613	11.1876	3.4129
C   55.0009	12.3999	3.4075
C   56.421	12.3641	3.41
C   57.1595	13.577	3.4037
C   58.5795	13.5415	3.4052
C   59.3166	14.7551	3.3984
C   60.7365	14.7199	3.3994
C   61.4719	15.9345	3.3922
C   62.8916	15.8996	3.3929
C   63.625	17.1153	3.3857
C   65.0445	17.0808	3.3861
C   65.7758	18.2978	3.3793
C   67.1952	18.2637	3.3797
C   67.9244	19.4819	3.3736
C   49.8819	6.37774	3.4173
C   50.6227	7.58947	3.4145
C   52.0427	7.55429	3.4201
C   52.7833	8.766	3.4164
C   54.2033	8.73018	3.4206
C   54.9435	9.94209	3.416
C   56.3635	9.90604	3.4189
C   57.1029	11.1184	3.4133
C   58.5228	11.0824	3.4151
C   59.2611	12.2954	3.4088
C   60.6809	12.2597	3.4099
C   61.4179	13.4734	3.403
C   62.8376	13.4381	3.4036
C   63.5729	14.6528	3.3963
C   64.9925	14.6179	3.3964
C   65.7257	15.8337	3.3889
C   47.6608	2.74193	3.416
C   48.4019	3.95378	3.4147
C   49.8216	3.92011	3.4214
C   50.5629	5.13171	3.4195
C   51.9827	5.09686	3.4254
C   52.7239	6.30834	3.4224
C   54.1437	6.27257	3.4272
C   54.8845	7.48416	3.4232
C   56.3044	7.44786	3.4266
C   57.0445	8.6598	3.4215
C   58.4643	8.62343	3.4236
C   59.2035	9.83588	3.4178
C   60.6233	9.79979	3.419
C   61.3614	11.0129	3.4126
C   62.7811	10.9772	3.413
C   63.5179	12.191	3.4061
C   46.1799	0.315266	3.4106
C   47.5995	0.283293	3.4176
C   48.3406	1.49519	3.4174
C   49.7603	1.46191	3.424
C   50.5016	2.67349	3.4231
C   51.9214	2.63903	3.4293
C   52.6629	3.85035	3.4274
C   54.0827	3.8148	3.4327
C   54.8241	5.02608	3.4295
C   56.2439	4.98969	3.4335
C   56.9847	6.20123	3.4289
C   58.4044	6.16453	3.4313
C   59.1444	7.37654	3.4257
C   60.5641	7.34006	3.4269
C   61.3031	8.55263	3.4207
C   50.4394	0.214792	3.4249
C   51.859	0.180602	3.4312
C   52.6006	1.39198	3.4306
C   54.0203	1.35665	3.4364
C   54.762	2.56778	3.4345
C   56.1818	2.53144	3.439
C   56.9233	3.74261	3.4354
C   58.343	3.70573	3.4381
C   59.0837	4.91728	3.433
C   54.6987	0.109126	3.437
C   56.1184	0.0728671	3.4418
C   56.8602	1.28388	3.4399
C   70.1504	40.8133	-0.0814
C   70.8341	42.0577	-0.088
C   72.2542	42.0866	-0.0927
C   72.9364	43.3319	-0.0995
C   74.3563	43.3627	-0.1037
C   75.0374	44.6087	-0.11
C   76.4572	44.641	-0.1133
C   77.1374	45.8876	-0.1189
C   78.5572	45.9209	-0.1215
C   79.2367	47.1678	-0.1266
C   80.6565	47.202	-0.1289
C   81.3353	48.4493	-0.1335
C   82.755	48.4845	-0.1354
C   83.4332	49.7322	-0.139
C   84.8528	49.7684	-0.1399
C   72.1957	44.5441	-0.0976
C   72.8766	45.7902	-0.1037
C   74.2964	45.8207	-0.1075
C   74.9765	47.0673	-0.1129
C   76.3962	47.0992	-0.116
C   77.0757	48.3462	-0.1206
C   78.4954	48.3793	-0.1232
C   79.1742	49.6266	-0.1272
C   80.5939	49.6607	-0.1295
C   74.2355	48.2793	-0.1093
C   74.915	49.5262	-0.1136
C   76.3346	49.5581	-0.1164
C   69.021	26.0591	-0.0631
C   70.4422	26.0917	-0.0631
C   71.1359	27.3305	-0.0649
C   72.5571	27.3633	-0.0651
C   73.2503	28.6023	-0.0685
C   64.7499	25.9698	-0.0598
C   66.1707	26.0015	-0.0599
C   66.8632	27.2412	-0.0598
C   68.2842	27.2726	-0.0603
C   68.9772	28.5119	-0.0616
C   70.3983	28.5435	-0.0627
C   71.091	29.7828	-0.0656
C   72.5121	29.8149	-0.0672
C   73.2039	31.0546	-0.0718
C   74.625	31.0876	-0.0736
C   75.3153	32.3282	-0.0797
C   61.9039	25.9128	-0.0585
C   62.5945	27.154	-0.0573
C   64.0151	27.1848	-0.0574
C   64.7065	28.4253	-0.0571
C   66.1273	28.4555	-0.0576
C   66.8192	29.6955	-0.0585
C   68.2402	29.7255	-0.0597
C   68.9321	30.9653	-0.062
C   70.3531	30.9958	-0.0641
C   71.0443	32.2359	-0.068
C   72.4653	32.2672	-0.0707
C   73.1553	33.5079	-0.0763
C   74.5761	33.5404	-0.0793
C   75.2644	34.7821	-0.0861
C   76.685	34.8158	-0.0889
C   77.3713	36.0587	-0.0964
C   63.9715	29.6403	-0.0558
C   64.6622	30.8811	-0.0563
C   66.083	30.9097	-0.0572
C   66.7738	32.1502	-0.059
C   68.1947	32.1789	-0.0608
C   68.8851	33.4194	-0.0641
C   70.306	33.4487	-0.0669
C   70.9955	34.6898	-0.0718
C   72.4162	34.7203	-0.0755
C   73.1042	35.9623	-0.0818
C   74.5248	35.9943	-0.0857
C   75.2109	37.2373	-0.0929
C   76.6313	37.2706	-0.0963
C   77.3156	38.5147	-0.1036
C   78.7358	38.5492	-0.1061
C   79.4186	39.7942	-0.113
C   66.0368	33.3643	-0.0583
C   66.7264	34.6054	-0.0608
C   68.1471	34.6328	-0.0633
C   68.8359	35.8742	-0.0674
C   70.2565	35.9026	-0.071
C   70.9441	37.1447	-0.0767
C   72.3646	37.1746	-0.081
C   73.0505	38.4177	-0.0879
C   74.4709	38.4493	-0.0922
C   75.155	39.6935	-0.0994
C   76.5752	39.7266	-0.103
C   77.2578	40.9717	-0.1099
C   78.6778	41.0058	-0.1126
C   79.3593	42.2516	-0.119
C   80.7793	42.2864	-0.1207
C   81.4599	43.5327	-0.1269
C   68.0972	37.0874	-0.0668
C   68.7843	38.3298	-0.0718
C   70.2047	38.3574	-0.076
C   70.8903	39.6007	-0.0823
C   72.3105	39.63	-0.087
C   72.9945	40.8743	-0.094
C   74.4146	40.9055	-0.0984
C   75.097	42.1507	-0.1052
C   76.517	42.1834	-0.1088
C   77.1983	43.4293	-0.1151
C   78.6182	43.4631	-0.1178
C   79.2986	44.7095	-0.1236
C   80.7185	44.744	-0.1257
C   81.3981	45.9908	-0.1313
C   82.8179	46.0261	-0.133
C   83.4968	47.2734	-0.1381
C   67.5131	35.5234	3.364
C   68.2447	36.7412	3.367
C   69.6642	36.7136	3.372
C   70.3969	37.9306	3.3761
C   71.8165	37.9014	3.3824
C   72.5507	39.1173	3.387
C   73.9703	39.0864	3.3939
C   74.7062	40.3012	3.3984
C   76.1258	40.2686	3.405
C   76.8632	41.4824	3.4087
C   78.2828	41.4487	3.4147
C   79.0212	42.6619	3.4176
C   80.4408	42.6273	3.4229
C   81.1799	43.84	3.4253
C   82.5995	43.8046	3.4302
C   83.3394	45.0168	3.4324
C   65.3157	31.8674	3.3573
C   66.0454	33.086	3.3585
C   67.465	33.0584	3.3613
C   68.1949	34.277	3.3636
C   69.6144	34.2486	3.3679
C   70.3451	35.4667	3.3713
C   71.7646	35.4371	3.377
C   72.4966	36.6542	3.3812
C   73.9162	36.623	3.3877
C   74.65	37.8389	3.3922
C   76.0695	37.8062	3.3986
C   76.8051	39.021	3.4028
C   78.2247	38.9872	3.4086
C   78.9617	40.201	3.412
C   80.3813	40.1663	3.4171
C   81.1194	41.3795	3.4198
C   63.1218	28.2131	3.3563
C   63.851	29.4317	3.3558
C   65.2708	29.4027	3.3571
C   65.9994	30.6217	3.3574
C   67.419	30.5928	3.3598
C   68.1474	31.812	3.3611
C   69.5669	31.7828	3.3649
C   70.2958	33.0017	3.3673
C   71.7152	32.9715	3.3723
C   72.4451	34.1897	3.3758
C   73.8646	34.1583	3.3816
C   74.5961	35.3754	3.3857
C   76.0156	35.3426	3.3917
C   76.7491	36.5586	3.3959
C   78.1687	36.5246	3.4015
C   78.9039	37.7395	3.4053
C   61.6587	25.7811	3.3583
C   63.0786	25.7498	3.359
C   63.8074	26.9684	3.3572
C   65.2271	26.9379	3.3585
C   65.955	28.1571	3.3576
C   67.3746	28.1269	3.3598
C   68.1019	29.3465	3.3599
C   69.5214	29.3162	3.3632
C   70.2488	30.5358	3.3644
C   71.6681	30.505	3.3687
C   72.3962	31.7241	3.371
C   73.8156	31.6923	3.376
C   74.5449	32.9106	3.3793
C   75.9643	32.8777	3.3846
C   76.6955	34.0949	3.3884
C   65.9116	25.6923	3.3597
C   67.3311	25.6608	3.3616
C   68.0579	26.8806	3.3603
C   69.4772	26.8493	3.3631
C   70.2036	28.0693	3.3629
C   71.6229	28.0377	3.3664
C   72.3495	29.2575	3.3674
C   73.7688	29.2253	3.3715
C   74.4963	30.4446	3.3735
C   70.1596	25.6022	3.3631
C   71.5788	25.5699	3.3657
C   72.3046	26.7902	3.3651
C   74.1454	46.4698	3.4084
C   74.8856	47.6823	3.4104
C   76.3052	47.6504	3.4171
C   77.0459	48.8625	3.4181
C   78.4655	48.8294	3.4246
C   71.9275	42.8264	3.3937
C   72.6657	44.0401	3.3978
C   74.0853	44.0096	3.4048
C   74.8245	45.2226	3.408
C   76.2441	45.1905	3.4146
C   76.984	46.403	3.4168
C   78.4036	46.3698	3.423
C   79.1441	47.5819	3.4245
C   80.5637	47.5478	3.4306
C   81.3048	48.7595	3.4314
C   82.7244	48.7243	3.4372
C   69.7164	39.1775	3.3769
C   70.4512	40.3933	3.3814
C   71.8708	40.3645	3.3881
C   72.6072	41.5793	3.3928
C   74.0268	41.5485	3.3998
C   74.7645	42.7623	3.4038
C   76.1841	42.73	3.4104
C   76.923	43.943	3.4135
C   78.3426	43.9096	3.4195
C   79.0821	45.1222	3.4219
C   80.5017	45.0878	3.4276
C   81.2418	46.3	3.4295
C   82.6615	46.2647	3.4349
C   83.4023	47.4764	3.4362
C   84.822	47.4402	3.4409
C   85.5636	48.6514	3.441
