4376
C   1.41996	0.0303635	1.7763568394e-15
C   2.83991	0.0607269	1.7763568394e-15
C   3.5236	1.30563	1.7763568394e-15
C   4.94355	1.33599	1.7763568394e-15
C   5.62724	2.58089	1.7763568394e-15
C   7.04719	2.61125	1.7763568394e-15
C   7.73088	3.85616	1.7763568394e-15
C   9.15083	3.88652	1.7763568394e-15
C   9.83452	5.13142	1.7763568394e-15
C   11.2545	5.16178	1.7763568394e-15
C   11.9382	6.40668	1.7763568394e-15
C   13.3581	6.43705	1.7763568394e-15
C   14.0418	7.68195	1.7763568394e-15
C   15.4618	7.71231	1.7763568394e-15
C   16.1454	8.95721	1.7763568394e-15
C   2.78732	2.52016	1.7763568394e-15
C   3.47101	3.76507	1.7763568394e-15
C   4.89096	3.79543	1.7763568394e-15
C   5.57465	5.04033	1.7763568394e-15
C   6.9946	5.07069	1.7763568394e-15
C   7.67829	6.31559	1.7763568394e-15
C   9.09824	6.34596	1.7763568394e-15
C   9.78193	7.59086	1.7763568394e-15
C   11.2019	7.62122	1.7763568394e-15
C   11.8856	8.86612	1.7763568394e-15
C   13.3055	8.89648	1.7763568394e-15
C   13.9892	10.1414	1.7763568394e-15
C   15.4092	10.1717	1.7763568394e-15
C   16.0928	11.4166	1.7763568394e-15
C   17.5128	11.447	1.7763568394e-15
C   18.1965	12.6919	1.7763568394e-15
C   4.83837	6.25487	1.7763568394e-15
C   5.52206	7.49977	1.7763568394e-15
C   6.94201	7.53013	1.7763568394e-15
C   7.6257	8.77503	1.7763568394e-15
C   9.04565	8.80539	1.7763568394e-15
C   9.72934	10.0503	1.7763568394e-15
C   11.1493	10.0807	1.7763568394e-15
C   11.833	11.3256	1.7763568394e-15
C   13.2529	11.3559	1.7763568394e-15
C   13.9366	12.6008	1.7763568394e-15
C   15.3566	12.6312	1.7763568394e-15
C   16.0403	13.8761	1.7763568394e-15
C   17.4602	13.9065	1.7763568394e-15
C   18.1439	15.1514	1.7763568394e-15
C   19.5639	15.1817	1.7763568394e-15
C   20.2475	16.4266	1.7763568394e-15
C   6.88942	9.98957	1.7763568394e-15
C   7.5731	11.2345	1.7763568394e-15
C   8.99306	11.2648	1.7763568394e-15
C   9.67674	12.5097	1.7763568394e-15
C   11.0967	12.5401	1.7763568394e-15
C   11.7804	13.785	1.7763568394e-15
C   13.2003	13.8154	1.7763568394e-15
C   13.884	15.0603	1.7763568394e-15
C   15.304	15.0906	1.7763568394e-15
C   15.9877	16.3355	1.7763568394e-15
C   17.4076	16.3659	1.7763568394e-15
C   18.0913	17.6108	1.7763568394e-15
C   19.5113	17.6412	1.7763568394e-15
C   20.1949	18.8861	1.7763568394e-15
C   21.6149	18.9164	1.7763568394e-15
C   22.2986	20.1613	1.7763568394e-15
C   8.94047	13.7243	1.7763568394e-15
C   9.62415	14.9692	1.7763568394e-15
C   11.0441	14.9995	1.7763568394e-15
C   11.7278	16.2444	1.7763568394e-15
C   13.1478	16.2748	1.7763568394e-15
C   13.8314	17.5197	1.7763568394e-15
C   15.2514	17.5501	1.7763568394e-15
C   15.9351	18.795	1.7763568394e-15
C   17.355	18.8253	1.7763568394e-15
C   18.0387	20.0702	1.7763568394e-15
C   19.4587	20.1006	1.7763568394e-15
C   20.1424	21.3455	1.7763568394e-15
C   21.5623	21.3759	1.7763568394e-15
C   22.246	22.6208	1.7763568394e-15
C   23.666	22.6511	1.7763568394e-15
C   24.3496	23.896	1.7763568394e-15
C   10.9915	17.459	1.7763568394e-15
C   11.6752	18.7039	1.7763568394e-15
C   13.0952	18.7342	1.7763568394e-15
C   13.7788	19.9791	1.7763568394e-15
C   15.1988	20.0095	1.7763568394e-15
C   15.8825	21.2544	1.7763568394e-15
C   17.3024	21.2848	1.7763568394e-15
C   17.9861	22.5297	1.7763568394e-15
C   19.4061	22.56	1.7763568394e-15
C   20.0898	23.8049	1.7763568394e-15
C   21.5097	23.8353	1.7763568394e-15
C   13.0426	21.1937	1.7763568394e-15
C   13.7263	22.4386	1.7763568394e-15
C   15.1462	22.4689	1.7763568394e-15
C   15.8299	23.7138	1.7763568394e-15
C   17.2498	23.7442	1.7763568394e-15
C   9.9397	0.212544	1.7763568394e-15
C   11.3597	0.242907	1.7763568394e-15
C   12.0433	1.48781	1.7763568394e-15
C   5.67983	0.121454	1.7763568394e-15
C   7.09979	0.151817	1.7763568394e-15
C   7.78347	1.39672	1.7763568394e-15
C   9.20343	1.42708	1.7763568394e-15
C   9.88711	2.67198	1.7763568394e-15
C   11.3071	2.70235	1.7763568394e-15
C   11.9907	3.94725	1.7763568394e-15
C   13.4107	3.97761	1.7763568394e-15
C   14.0944	5.22251	1.7763568394e-15
C   3.57619	1.15381	3.3
C   4.99615	1.12345	3.3
C   5.73242	2.33798	3.3
C   7.15238	2.30762	3.3
C   7.88865	3.52216	3.3
C   9.30861	3.49179	3.3
C   10.0449	4.70633	3.3
C   11.4648	4.67597	3.3
C   12.2011	5.89051	3.3
C   13.6211	5.86014	3.3
C   14.3573	7.07468	3.3
C   7.83606	1.06272	3.3
C   9.25602	1.03236	3.3
C   9.99229	2.24689	3.3
C   11.4122	2.21653	3.3
C   12.1485	3.43107	3.3
C   13.9892	23.0762	3.3
C   14.7255	24.2907	3.3
C   16.1454	24.2604	3.3
C   11.7804	19.4326	3.3
C   12.5167	20.6471	3.3
C   13.9366	20.6168	3.3
C   14.6729	21.8313	3.3
C   16.0928	21.8009	3.3
C   16.8291	23.0155	3.3
C   18.2491	22.9851	3.3
C   18.9854	24.1997	3.3
C   20.4053	24.1693	3.3
C   9.57156	15.789	3.3
C   10.3078	17.0035	3.3
C   11.7278	16.9732	3.3
C   12.4641	18.1877	3.3
C   13.884	18.1573	3.3
C   14.6203	19.3719	3.3
C   16.0403	19.3415	3.3
C   16.7765	20.556	3.3
C   18.1965	20.5257	3.3
C   18.9328	21.7402	3.3
C   20.3527	21.7099	3.3
C   21.089	22.9244	3.3
C   22.5089	22.894	3.3
C   23.2452	24.1086	3.3
C   24.6652	24.0782	3.3
C   7.36274	12.1454	3.3
C   8.09901	13.3599	3.3
C   9.51897	13.3295	3.3
C   10.2552	14.5441	3.3
C   11.6752	14.5137	3.3
C   12.4115	15.7283	3.3
C   13.8314	15.6979	3.3
C   14.5677	16.9124	3.3
C   15.9877	16.8821	3.3
C   16.7239	18.0966	3.3
C   18.1439	18.0662	3.3
C   18.8802	19.2808	3.3
C   20.3001	19.2504	3.3
C   21.0364	20.465	3.3
C   22.4564	20.4346	3.3
C   23.1926	21.6491	3.3
C   5.15392	8.50176	3.3
C   5.89019	9.7163	3.3
C   7.31015	9.68593	3.3
C   8.04642	10.9005	3.3
C   9.46638	10.8701	3.3
C   10.2027	12.0846	3.3
C   11.6226	12.0543	3.3
C   12.3589	13.2688	3.3
C   13.7788	13.2385	3.3
C   14.5151	14.453	3.3
C   15.9351	14.4226	3.3
C   16.6713	15.6372	3.3
C   18.0913	15.6068	3.3
C   18.8276	16.8213	3.3
C   20.2475	16.791	3.3
C   20.9838	18.0055	3.3
C   2.9451	4.85815	3.3
C   3.68137	6.07269	3.3
C   5.10133	6.04232	3.3
C   5.8376	7.25686	3.3
C   7.25756	7.2265	3.3
C   7.99383	8.44103	3.3
C   9.41379	8.41067	3.3
C   10.1501	9.62521	3.3
C   11.57	9.59484	3.3
C   12.3063	10.8094	3.3
C   13.7263	10.779	3.3
C   14.4625	11.9936	3.3
C   15.8825	11.9632	3.3
C   16.6188	13.1777	3.3
C   18.0387	13.1474	3.3
C   18.775	14.3619	3.3
C   0.736274	1.21454	3.3
C   1.47255	2.42907	3.3
C   2.89251	2.39871	3.3
C   3.62878	3.61325	3.3
C   5.04874	3.58288	3.3
C   5.78501	4.79742	3.3
C   7.20497	4.76706	3.3
C   7.94124	5.9816	3.3
C   9.3612	5.95123	3.3
C   10.0975	7.16577	3.3
C   11.5174	7.13541	3.3
C   12.2537	8.34994	3.3
C   13.6737	8.31958	3.3
C   14.4099	9.53412	3.3
C   15.8299	9.50375	3.3
C   16.5662	10.7183	3.3
C   22.1934	25.0802	1.7763568394e-15
C   23.6134	25.1106	1.7763568394e-15
C   24.297	26.3555	1.7763568394e-15
C   25.717	26.3858	1.7763568394e-15
C   26.4007	27.6307	1.7763568394e-15
C   17.9335	24.9891	1.7763568394e-15
C   19.3535	25.0195	1.7763568394e-15
C   20.0372	26.2644	1.7763568394e-15
C   21.4571	26.2947	1.7763568394e-15
C   22.1408	27.5396	1.7763568394e-15
C   23.5608	27.57	1.7763568394e-15
C   24.2445	28.8149	1.7763568394e-15
C   25.6644	28.8453	1.7763568394e-15
C   26.3481	30.0902	1.7763568394e-15
C   27.768	30.1205	1.7763568394e-15
C   28.4517	31.3654	1.7763568394e-15
C   15.0936	24.9284	1.7763568394e-15
C   15.7773	26.1733	1.7763568394e-15
C   17.1973	26.2036	1.7763568394e-15
C   17.8809	27.4485	1.7763568394e-15
C   19.3009	27.4789	1.7763568394e-15
C   19.9846	28.7238	1.7763568394e-15
C   21.4045	28.7542	1.7763568394e-15
C   22.0882	29.9991	1.7763568394e-15
C   23.5082	30.0294	1.7763568394e-15
C   24.1919	31.2743	1.7763568394e-15
C   25.6118	31.3047	1.7763568394e-15
C   26.2955	32.5496	1.7763568394e-15
C   27.7155	32.58	1.7763568394e-15
C   28.3991	33.8249	1.7763568394e-15
C   29.8191	33.8552	1.7763568394e-15
C   30.5028	35.1001	1.7763568394e-15
C   17.1447	28.6631	1.7763568394e-15
C   17.8283	29.908	1.7763568394e-15
C   19.2483	29.9383	1.7763568394e-15
C   19.932	31.1832	1.7763568394e-15
C   21.3519	31.2136	1.7763568394e-15
C   22.0356	32.4585	1.7763568394e-15
C   23.4556	32.4889	1.7763568394e-15
C   24.1393	33.7338	1.7763568394e-15
C   25.5592	33.7641	1.7763568394e-15
C   26.2429	35.009	1.7763568394e-15
C   27.6629	35.0394	1.7763568394e-15
C   28.3466	36.2843	1.7763568394e-15
C   29.7665	36.3147	1.7763568394e-15
C   30.4502	37.5596	1.7763568394e-15
C   31.8701	37.5899	1.7763568394e-15
C   32.5538	38.8348	1.7763568394e-15
C   34.6575	40.1101	1.7763568394e-15
C   19.1957	32.3978	1.7763568394e-15
C   19.8794	33.6427	1.7763568394e-15
C   21.2994	33.673	1.7763568394e-15
C   21.983	34.9179	1.7763568394e-15
C   23.403	34.9483	1.7763568394e-15
C   24.0867	36.1932	1.7763568394e-15
C   25.5066	36.2236	1.7763568394e-15
C   26.1903	37.4685	1.7763568394e-15
C   27.6103	37.4988	1.7763568394e-15
C   28.294	38.7437	1.7763568394e-15
C   29.7139	38.7741	1.7763568394e-15
C   30.3976	40.019	1.7763568394e-15
C   31.8176	40.0494	1.7763568394e-15
C   32.5012	41.2943	1.7763568394e-15
C   33.9212	41.3246	1.7763568394e-15
C   34.6049	42.5695	1.7763568394e-15
C   36.0248	42.5999	1.7763568394e-15
C   36.7085	43.8448	1.7763568394e-15
C   21.2468	36.1325	1.7763568394e-15
C   21.9304	37.3774	1.7763568394e-15
C   23.3504	37.4077	1.7763568394e-15
C   24.0341	38.6526	1.7763568394e-15
C   25.454	38.683	1.7763568394e-15
C   26.1377	39.9279	1.7763568394e-15
C   27.5577	39.9583	1.7763568394e-15
C   28.2414	41.2032	1.7763568394e-15
C   29.6613	41.2335	1.7763568394e-15
C   30.345	42.4784	1.7763568394e-15
C   31.765	42.5088	1.7763568394e-15
C   32.4486	43.7537	1.7763568394e-15
C   33.8686	43.7841	1.7763568394e-15
C   34.5523	45.029	1.7763568394e-15
C   35.9722	45.0593	1.7763568394e-15
C   36.6559	46.3042	1.7763568394e-15
C   38.0759	46.3346	1.7763568394e-15
C   38.7596	47.5795	1.7763568394e-15
C   23.2978	39.8672	1.7763568394e-15
C   23.9815	41.1121	1.7763568394e-15
C   25.4015	41.1424	1.7763568394e-15
C   26.0851	42.3873	1.7763568394e-15
C   27.5051	42.4177	1.7763568394e-15
C   28.1888	43.6626	1.7763568394e-15
C   29.6087	43.693	1.7763568394e-15
C   30.2924	44.9379	1.7763568394e-15
C   31.7124	44.9682	1.7763568394e-15
C   32.3961	46.2131	1.7763568394e-15
C   33.816	46.2435	1.7763568394e-15
C   34.4997	47.4884	1.7763568394e-15
C   35.9197	47.5188	1.7763568394e-15
C   36.6033	48.7637	1.7763568394e-15
C   38.0233	48.794	1.7763568394e-15
C   25.3489	43.6019	1.7763568394e-15
C   26.0325	44.8468	1.7763568394e-15
C   27.4525	44.8771	1.7763568394e-15
C   28.1362	46.122	1.7763568394e-15
C   29.5561	46.1524	1.7763568394e-15
C   30.2398	47.3973	1.7763568394e-15
C   31.6598	47.4277	1.7763568394e-15
C   32.3435	48.6726	1.7763568394e-15
C   33.7634	48.7029	1.7763568394e-15
C   27.3999	47.3366	1.7763568394e-15
C   28.0836	48.5815	1.7763568394e-15
C   29.5036	48.6119	1.7763568394e-15
C   30.1872	49.796	3.3
C   31.6072	49.7657	3.3
C   27.2421	44.9379	3.3
C   27.9784	46.1524	3.3
C   29.3984	46.122	3.3
C   30.1346	47.3366	3.3
C   31.5546	47.3062	3.3
C   32.2909	48.5208	3.3
C   33.7108	48.4904	3.3
C   34.4471	49.7049	3.3
C   35.8671	49.6746	3.3
C   25.0333	41.2943	3.3
C   25.7696	42.5088	3.3
C   27.1895	42.4784	3.3
C   27.9258	43.693	3.3
C   29.3458	43.6626	3.3
C   30.0821	44.8771	3.3
C   31.502	44.8468	3.3
C   32.2383	46.0613	3.3
C   33.6582	46.031	3.3
C   34.3945	47.2455	3.3
C   35.8145	47.2151	3.3
C   36.5507	48.4297	3.3
C   37.9707	48.3993	3.3
C   38.707	49.6138	3.3
C   40.1269	49.5835	3.3
C   22.8245	37.6507	3.3
C   23.5608	38.8652	3.3
C   24.9807	38.8348	3.3
C   25.717	40.0494	3.3
C   27.137	40.019	3.3
C   27.8732	41.2335	3.3
C   29.2932	41.2032	3.3
C   30.0295	42.4177	3.3
C   31.4494	42.3873	3.3
C   32.1857	43.6019	3.3
C   33.6057	43.5715	3.3
C   34.3419	44.7861	3.3
C   35.7619	44.7557	3.3
C   36.4982	45.9702	3.3
C   37.9181	45.9399	3.3
C   38.6544	47.1544	3.3
C   20.6157	34.007	3.3
C   21.3519	35.2216	3.3
C   22.7719	35.1912	3.3
C   23.5082	36.4058	3.3
C   24.9281	36.3754	3.3
C   25.6644	37.5899	3.3
C   27.0844	37.5596	3.3
C   27.8206	38.7741	3.3
C   29.2406	38.7437	3.3
C   29.9769	39.9583	3.3
C   31.3968	39.9279	3.3
C   32.1331	41.1424	3.3
C   33.5531	41.1121	3.3
C   34.2893	42.3266	3.3
C   35.7093	42.2963	3.3
C   36.4456	43.5108	3.3
C   18.4069	30.3634	3.3
C   19.1431	31.578	3.3
C   20.5631	31.5476	3.3
C   21.2994	32.7621	3.3
C   22.7193	32.7318	3.3
C   23.4556	33.9463	3.3
C   24.8755	33.916	3.3
C   25.6118	35.1305	3.3
C   27.0318	35.1001	3.3
C   27.768	36.3147	3.3
C   29.188	36.2843	3.3
C   29.9243	37.4988	3.3
C   31.3442	37.4685	3.3
C   32.0805	38.683	3.3
C   33.5005	38.6526	3.3
C   34.2367	39.8672	3.3
C   16.198	26.7198	3.3
C   16.9343	27.9344	3.3
C   18.3543	27.904	3.3
C   19.0905	29.1185	3.3
C   20.5105	29.0882	3.3
C   21.2468	30.3027	3.3
C   22.6667	30.2723	3.3
C   23.403	31.4869	3.3
C   24.823	31.4565	3.3
C   25.5592	32.671	3.3
C   26.9792	32.6407	3.3
C   27.7155	33.8552	3.3
C   29.1354	33.8249	3.3
C   29.8717	35.0394	3.3
C   31.2916	35.009	3.3
C   32.0279	36.2236	3.3
C   16.8817	25.4749	3.3
C   18.3017	25.4446	3.3
C   19.0379	26.6591	3.3
C   20.4579	26.6287	3.3
C   21.1942	27.8433	3.3
C   22.6141	27.8129	3.3
C   23.3504	29.0274	3.3
C   24.7704	28.9971	3.3
C   25.5066	30.2116	3.3
C   26.9266	30.1812	3.3
C   27.6629	31.3958	3.3
C   29.0828	31.3654	3.3
C   29.8191	32.58	3.3
C   21.1416	25.3838	3.3
C   22.5615	25.3535	3.3
C   23.2978	26.568	3.3
C   24.7178	26.5376	3.3
C   25.454	27.7522	3.3
C   26.874	27.7218	3.3
C   27.6103	28.9363	3.3
C   25.4015	25.2927	3.3
C   29.451	48.5815	3.3
C   17.5654	8.98758	1.7763568394e-15
C   18.2491	10.2325	1.7763568394e-15
C   19.669	10.2628	1.7763568394e-15
C   20.3527	11.5077	1.7763568394e-15
C   21.7727	11.5381	1.7763568394e-15
C   22.4564	12.783	1.7763568394e-15
C   23.8763	12.8134	1.7763568394e-15
C   24.56	14.0583	1.7763568394e-15
C   25.98	14.0886	1.7763568394e-15
C   26.6636	15.3335	1.7763568394e-15
C   28.0836	15.3639	1.7763568394e-15
C   28.7673	16.6088	1.7763568394e-15
C   30.1872	16.6392	1.7763568394e-15
C   30.8709	17.8841	1.7763568394e-15
C   32.2909	17.9144	1.7763568394e-15
C   32.9746	19.1593	1.7763568394e-15
C   19.6164	12.7223	1.7763568394e-15
C   20.3001	13.9672	1.7763568394e-15
C   21.7201	13.9975	1.7763568394e-15
C   22.4038	15.2424	1.7763568394e-15
C   23.8237	15.2728	1.7763568394e-15
C   24.5074	16.5177	1.7763568394e-15
C   25.9274	16.5481	1.7763568394e-15
C   26.611	17.793	1.7763568394e-15
C   28.031	17.8233	1.7763568394e-15
C   28.7147	19.0682	1.7763568394e-15
C   30.1346	19.0986	1.7763568394e-15
C   30.8183	20.3435	1.7763568394e-15
C   32.2383	20.3739	1.7763568394e-15
C   32.922	21.6188	1.7763568394e-15
C   34.3419	21.6491	1.7763568394e-15
C   35.0256	22.894	1.7763568394e-15
C   21.6675	16.457	1.7763568394e-15
C   22.3512	17.7019	1.7763568394e-15
C   23.7711	17.7322	1.7763568394e-15
C   24.4548	18.9771	1.7763568394e-15
C   25.8748	19.0075	1.7763568394e-15
C   26.5585	20.2524	1.7763568394e-15
C   27.9784	20.2828	1.7763568394e-15
C   28.6621	21.5277	1.7763568394e-15
C   30.0821	21.558	1.7763568394e-15
C   30.7657	22.8029	1.7763568394e-15
C   32.1857	22.8333	1.7763568394e-15
C   32.8694	24.0782	1.7763568394e-15
C   34.2893	24.1086	1.7763568394e-15
C   23.7185	20.1917	1.7763568394e-15
C   24.4022	21.4366	1.7763568394e-15
C   25.8222	21.4669	1.7763568394e-15
C   26.5059	22.7118	1.7763568394e-15
C   27.9258	22.7422	1.7763568394e-15
C   28.6095	23.9871	1.7763568394e-15
C   30.0295	24.0175	1.7763568394e-15
C   25.7696	23.9264	1.7763568394e-15
C   22.7193	0.485815	1.7763568394e-15
C   18.4594	0.394725	1.7763568394e-15
C   19.8794	0.425088	1.7763568394e-15
C   20.5631	1.66999	1.7763568394e-15
C   21.983	1.70035	1.7763568394e-15
C   22.6667	2.94525	1.7763568394e-15
C   24.0867	2.97562	1.7763568394e-15
C   24.7704	4.22052	1.7763568394e-15
C   14.1996	0.303634	1.7763568394e-15
C   15.6195	0.333998	1.7763568394e-15
C   16.3032	1.5789	1.7763568394e-15
C   17.7232	1.60926	1.7763568394e-15
C   18.4069	2.85416	1.7763568394e-15
C   19.8268	2.88453	1.7763568394e-15
C   20.5105	4.12943	1.7763568394e-15
C   21.9304	4.15979	1.7763568394e-15
C   22.6141	5.40469	1.7763568394e-15
C   24.0341	5.43505	1.7763568394e-15
C   24.7178	6.67995	1.7763568394e-15
C   26.1377	6.71032	1.7763568394e-15
C   26.8214	7.95522	1.7763568394e-15
C   13.4633	1.51817	1.7763568394e-15
C   14.147	2.76307	1.7763568394e-15
C   15.5669	2.79344	1.7763568394e-15
C   16.2506	4.03834	1.7763568394e-15
C   17.6706	4.0687	1.7763568394e-15
C   18.3543	5.3136	1.7763568394e-15
C   19.7742	5.34396	1.7763568394e-15
C   20.4579	6.58886	1.7763568394e-15
C   21.8779	6.61923	1.7763568394e-15
C   22.5615	7.86413	1.7763568394e-15
C   23.9815	7.89449	1.7763568394e-15
C   24.6652	9.13939	1.7763568394e-15
C   26.0851	9.16976	1.7763568394e-15
C   26.7688	10.4147	1.7763568394e-15
C   28.1888	10.445	1.7763568394e-15
C   28.8725	11.6899	1.7763568394e-15
C   15.5143	5.25287	1.7763568394e-15
C   16.198	6.49777	1.7763568394e-15
C   17.618	6.52814	1.7763568394e-15
C   18.3017	7.77304	1.7763568394e-15
C   19.7216	7.8034	1.7763568394e-15
C   20.4053	9.0483	1.7763568394e-15
C   21.8253	9.07867	1.7763568394e-15
C   22.5089	10.3236	1.7763568394e-15
C   23.9289	10.3539	1.7763568394e-15
C   24.6126	11.5988	1.7763568394e-15
C   26.0325	11.6292	1.7763568394e-15
C   26.7162	12.8741	1.7763568394e-15
C   28.1362	12.9045	1.7763568394e-15
C   28.8199	14.1494	1.7763568394e-15
C   30.2398	14.1797	1.7763568394e-15
C   30.9235	15.4246	1.7763568394e-15
C   15.7773	7.04432	3.3
C   16.5136	8.25885	3.3
C   17.9335	8.22849	3.3
C   18.6698	9.44303	3.3
C   20.0898	9.41266	3.3
C   20.826	10.6272	3.3
C   22.246	10.5968	3.3
C   22.9823	11.8114	3.3
C   24.4022	11.781	3.3
C   25.1385	12.9955	3.3
C   26.5585	12.9652	3.3
C   27.2947	14.1797	3.3
C   28.7147	14.1494	3.3
C   29.451	15.3639	3.3
C   30.8709	15.3335	3.3
C   31.6072	16.5481	3.3
C   13.5685	3.4007	3.3
C   14.3048	4.61524	3.3
C   15.7247	4.58488	3.3
C   16.461	5.79942	3.3
C   17.8809	5.76905	3.3
C   18.6172	6.98359	3.3
C   20.0372	6.95323	3.3
C   20.7734	8.16776	3.3
C   22.1934	8.1374	3.3
C   22.9297	9.35194	3.3
C   24.3496	9.32157	3.3
C   25.0859	10.5361	3.3
C   26.5059	10.5057	3.3
C   27.2421	11.7203	3.3
C   28.6621	11.6899	3.3
C   29.3984	12.9045	3.3
C   12.0959	0.97163	3.3
C   13.5159	0.941266	3.3
C   14.2522	2.1558	3.3
C   15.6721	2.12544	3.3
C   16.4084	3.33998	3.3
C   17.8283	3.30961	3.3
C   18.5646	4.52415	3.3
C   19.9846	4.49379	3.3
C   20.7209	5.70832	3.3
C   22.1408	5.67796	3.3
C   22.8771	6.8925	3.3
C   24.297	6.86214	3.3
C   25.0333	8.07667	3.3
C   26.4533	8.04631	3.3
C   27.1895	9.26085	3.3
C   16.3558	0.880539	3.3
C   17.7758	0.850176	3.3
C   18.512	2.06471	3.3
C   19.932	2.03435	3.3
C   20.6683	3.24889	3.3
C   22.0882	3.21852	3.3
C   22.8245	4.43306	3.3
C   24.2445	4.4027	3.3
C   24.9807	5.61723	3.3
C   20.6157	0.789449	3.3
C   22.0356	0.759086	3.3
C   22.7719	1.97362	3.3
C   24.6126	21.6188	3.3
C   25.3489	22.8333	3.3
C   26.7688	22.8029	3.3
C   27.5051	24.0175	3.3
C   28.9251	23.9871	3.3
C   22.4038	17.9752	3.3
C   23.14	19.1897	3.3
C   24.56	19.1593	3.3
C   25.2963	20.3739	3.3
C   26.7162	20.3435	3.3
C   27.4525	21.558	3.3
C   28.8725	21.5277	3.3
C   29.6087	22.7422	3.3
C   31.0287	22.7118	3.3
C   31.765	23.9264	3.3
C   33.1849	23.896	3.3
C   20.1949	14.3315	3.3
C   20.9312	15.5461	3.3
C   22.3512	15.5157	3.3
C   23.0875	16.7302	3.3
C   24.5074	16.6999	3.3
C   25.2437	17.9144	3.3
C   26.6636	17.8841	3.3
C   27.3999	19.0986	3.3
C   28.8199	19.0682	3.3
C   29.5561	20.2828	3.3
C   30.9761	20.2524	3.3
C   31.7124	21.4669	3.3
C   33.1323	21.4366	3.3
C   33.8686	22.6511	3.3
C   35.2886	22.6208	3.3
C   36.0248	23.8353	3.3
C   17.9861	10.6879	3.3
C   18.7224	11.9025	3.3
C   20.1424	11.8721	3.3
C   20.8786	13.0866	3.3
C   22.2986	13.0563	3.3
C   23.0349	14.2708	3.3
C   24.4548	14.2404	3.3
C   25.1911	15.455	3.3
C   26.611	15.4246	3.3
C   27.3473	16.6392	3.3
C   28.7673	16.6088	3.3
C   29.5036	17.8233	3.3
C   30.9235	17.793	3.3
C   31.6598	19.0075	3.3
C   33.0797	18.9771	3.3
C   33.816	20.1917	3.3
C   34.973	25.3535	1.7763568394e-15
C   36.393	25.3838	1.7763568394e-15
C   37.0767	26.6287	1.7763568394e-15
C   30.7131	25.2624	1.7763568394e-15
C   32.1331	25.2927	1.7763568394e-15
C   32.8168	26.5376	1.7763568394e-15
C   34.2367	26.568	1.7763568394e-15
C   34.9204	27.8129	1.7763568394e-15
C   36.3404	27.8433	1.7763568394e-15
C   37.0241	29.0882	1.7763568394e-15
C   38.444	29.1185	1.7763568394e-15
C   39.1277	30.3634	1.7763568394e-15
C   40.5477	30.3938	1.7763568394e-15
C   41.2313	31.6387	1.7763568394e-15
C   26.4533	25.1713	1.7763568394e-15
C   27.8732	25.2016	1.7763568394e-15
C   28.5569	26.4465	1.7763568394e-15
C   29.9769	26.4769	1.7763568394e-15
C   30.6606	27.7218	1.7763568394e-15
C   32.0805	27.7522	1.7763568394e-15
C   32.7642	28.9971	1.7763568394e-15
C   34.1842	29.0274	1.7763568394e-15
C   34.8678	30.2723	1.7763568394e-15
C   36.2878	30.3027	1.7763568394e-15
C   36.9715	31.5476	1.7763568394e-15
C   38.3914	31.578	1.7763568394e-15
C   39.0751	32.8229	1.7763568394e-15
C   40.4951	32.8532	1.7763568394e-15
C   41.1788	34.0981	1.7763568394e-15
C   42.5987	34.1285	1.7763568394e-15
C   43.2824	35.3734	1.7763568394e-15
C   27.8206	27.6611	1.7763568394e-15
C   28.5043	28.906	1.7763568394e-15
C   29.9243	28.9363	1.7763568394e-15
C   30.608	30.1812	1.7763568394e-15
C   32.0279	30.2116	1.7763568394e-15
C   32.7116	31.4565	1.7763568394e-15
C   34.1316	31.4869	1.7763568394e-15
C   34.8152	32.7318	1.7763568394e-15
C   36.2352	32.7621	1.7763568394e-15
C   36.9189	34.007	1.7763568394e-15
C   38.3388	34.0374	1.7763568394e-15
C   39.0225	35.2823	1.7763568394e-15
C   40.4425	35.3127	1.7763568394e-15
C   41.1262	36.5576	1.7763568394e-15
C   42.5461	36.5879	1.7763568394e-15
C   43.2298	37.8328	1.7763568394e-15
C   44.6498	37.8632	1.7763568394e-15
C   45.3334	39.1081	1.7763568394e-15
C   29.8717	31.3958	1.7763568394e-15
C   30.5554	32.6407	1.7763568394e-15
C   31.9753	32.671	1.7763568394e-15
C   32.659	33.916	1.7763568394e-15
C   34.079	33.9463	1.7763568394e-15
C   34.7627	35.1912	1.7763568394e-15
C   36.1826	35.2216	1.7763568394e-15
C   36.8663	36.4665	1.7763568394e-15
C   38.2862	36.4968	1.7763568394e-15
C   38.9699	37.7417	1.7763568394e-15
C   40.3899	37.7721	1.7763568394e-15
C   41.0736	39.017	1.7763568394e-15
C   42.4935	39.0474	1.7763568394e-15
C   43.1772	40.2923	1.7763568394e-15
C   44.5972	40.3226	1.7763568394e-15
C   45.2809	41.5675	1.7763568394e-15
C   46.7008	41.5979	1.7763568394e-15
C   47.3845	42.8428	1.7763568394e-15
C   31.9227	35.1305	1.7763568394e-15
C   32.6064	36.3754	1.7763568394e-15
C   34.0264	36.4058	1.7763568394e-15
C   34.7101	37.6507	1.7763568394e-15
C   36.13	37.681	1.7763568394e-15
C   36.8137	38.9259	1.7763568394e-15
C   38.2337	38.9563	1.7763568394e-15
C   38.9173	40.2012	1.7763568394e-15
C   40.3373	40.2315	1.7763568394e-15
C   41.021	41.4764	1.7763568394e-15
C   42.4409	41.5068	1.7763568394e-15
C   43.1246	42.7517	1.7763568394e-15
C   44.5446	42.7821	1.7763568394e-15
C   45.2283	44.027	1.7763568394e-15
C   46.6482	44.0573	1.7763568394e-15
C   47.3319	45.3022	1.7763568394e-15
C   48.7519	45.3326	1.7763568394e-15
C   49.4355	46.5775	1.7763568394e-15
C   33.9738	38.8652	1.7763568394e-15
C   36.0774	40.1405	1.7763568394e-15
C   36.7611	41.3854	1.7763568394e-15
C   38.1811	41.4157	1.7763568394e-15
C   38.8648	42.6606	1.7763568394e-15
C   40.2847	42.691	1.7763568394e-15
C   40.9684	43.9359	1.7763568394e-15
C   42.3883	43.9662	1.7763568394e-15
C   43.072	45.2111	1.7763568394e-15
C   44.492	45.2415	1.7763568394e-15
C   45.1757	46.4864	1.7763568394e-15
C   46.5956	46.5168	1.7763568394e-15
C   47.2793	47.7617	1.7763568394e-15
C   48.6993	47.792	1.7763568394e-15
C   49.383	49.0369	1.7763568394e-15
C   50.8029	49.0673	1.7763568394e-15
C   38.1285	43.8752	1.7763568394e-15
C   38.8122	45.1201	1.7763568394e-15
C   40.2321	45.1504	1.7763568394e-15
C   40.9158	46.3953	1.7763568394e-15
C   42.3358	46.4257	1.7763568394e-15
C   43.0194	47.6706	1.7763568394e-15
C   44.4394	47.7009	1.7763568394e-15
C   45.1231	48.9458	1.7763568394e-15
C   46.543	48.9762	1.7763568394e-15
C   40.1795	47.6099	1.7763568394e-15
C   40.8632	48.8548	1.7763568394e-15
C   42.2832	48.8851	1.7763568394e-15
C   40.0743	47.124	3.3
C   40.8106	48.3386	3.3
C   42.2306	48.3082	3.3
C   42.9668	49.5228	3.3
C   44.3868	49.4924	3.3
C   37.8655	43.4804	3.3
C   38.6018	44.695	3.3
C   40.0218	44.6646	3.3
C   40.758	45.8791	3.3
C   42.178	45.8488	3.3
C   42.9143	47.0633	3.3
C   44.3342	47.033	3.3
C   45.0705	48.2475	3.3
C   46.4904	48.2171	3.3
C   47.2267	49.4317	3.3
C   48.6467	49.4013	3.3
C   35.6567	39.8368	3.3
C   36.393	41.0514	3.3
C   37.8129	41.021	3.3
C   38.5492	42.2355	3.3
C   39.9692	42.2052	3.3
C   40.7054	43.4197	3.3
C   42.1254	43.3893	3.3
C   42.8617	44.6039	3.3
C   44.2816	44.5735	3.3
C   45.0179	45.7881	3.3
C   46.4379	45.7577	3.3
C   47.1741	46.9722	3.3
C   48.5941	46.9419	3.3
C   49.3304	48.1564	3.3
C   50.7503	48.126	3.3
C   51.4866	49.3406	3.3
C   33.4479	36.1932	3.3
C   34.1842	37.4077	3.3
C   35.6041	37.3774	3.3
C   36.3404	38.5919	3.3
C   37.7603	38.5616	3.3
C   38.4966	39.7761	3.3
C   39.9166	39.7457	3.3
C   40.6528	40.9603	3.3
C   42.0728	40.9299	3.3
C   42.8091	42.1444	3.3
C   44.229	42.1141	3.3
C   44.9653	43.3286	3.3
C   46.3853	43.2983	3.3
C   47.1215	44.5128	3.3
C   48.5415	44.4824	3.3
C   49.2778	45.697	3.3
C   31.2391	32.5496	3.3
C   31.9753	33.7641	3.3
C   33.3953	33.7338	3.3
C   34.1316	34.9483	3.3
C   35.5515	34.9179	3.3
C   36.2878	36.1325	3.3
C   37.7077	36.1021	3.3
C   38.444	37.3167	3.3
C   39.864	37.2863	3.3
C   40.6003	38.5008	3.3
C   42.0202	38.4705	3.3
C   42.7565	39.685	3.3
C   44.1764	39.6546	3.3
C   44.9127	40.8692	3.3
C   46.3327	40.8388	3.3
C   47.0689	42.0533	3.3
C   29.0302	28.906	3.3
C   29.7665	30.1205	3.3
C   31.1865	30.0902	3.3
C   31.9227	31.3047	3.3
C   33.3427	31.2743	3.3
C   34.079	32.4889	3.3
C   35.4989	32.4585	3.3
C   36.2352	33.673	3.3
C   37.6552	33.6427	3.3
C   38.3914	34.8572	3.3
C   39.8114	34.8269	3.3
C   40.5477	36.0414	3.3
C   41.9676	36.011	3.3
C   42.7039	37.2256	3.3
C   44.1239	37.1952	3.3
C   44.8601	38.4097	3.3
C   26.8214	25.2624	3.3
C   27.5577	26.4769	3.3
C   28.9776	26.4465	3.3
C   29.7139	27.6611	3.3
C   31.1339	27.6307	3.3
C   31.8701	28.8453	3.3
C   33.2901	28.8149	3.3
C   34.0264	30.0294	3.3
C   35.4463	29.9991	3.3
C   36.1826	31.2136	3.3
C   37.6026	31.1832	3.3
C   38.3388	32.3978	3.3
C   39.7588	32.3674	3.3
C   40.4951	33.582	3.3
C   41.915	33.5516	3.3
C   42.6513	34.7661	3.3
C   29.6613	25.2016	3.3
C   31.0813	25.1713	3.3
C   31.8176	26.3858	3.3
C   33.2375	26.3555	3.3
C   33.9738	27.57	3.3
C   35.3937	27.5396	3.3
C   36.13	28.7542	3.3
C   37.55	28.7238	3.3
C   38.2862	29.9383	3.3
C   39.7062	29.908	3.3
C   40.4425	31.1225	3.3
C   33.9212	25.1106	3.3
C   35.3412	25.0802	3.3
C   36.0774	26.2947	3.3
C   37.4974	26.2644	3.3
C   38.2337	27.4789	3.3
C   34.3945	19.1897	1.7763568394e-15
C   35.0782	20.4346	1.7763568394e-15
C   36.4982	20.465	1.7763568394e-15
C   37.1818	21.7099	1.7763568394e-15
C   38.6018	21.7402	1.7763568394e-15
C   39.2855	22.9851	1.7763568394e-15
C   40.7054	23.0155	1.7763568394e-15
C   41.3891	24.2604	1.7763568394e-15
C   42.8091	24.2907	1.7763568394e-15
C   36.4456	22.9244	1.7763568394e-15
C   37.1292	24.1693	1.7763568394e-15
C   38.5492	24.1997	1.7763568394e-15
C   31.2391	0.667995	1.7763568394e-15
C   32.659	0.698359	1.7763568394e-15
C   33.3427	1.94326	1.7763568394e-15
C   34.7627	1.97362	1.7763568394e-15
C   35.4463	3.21852	1.7763568394e-15
C   26.9792	0.576905	1.7763568394e-15
C   28.3991	0.607269	1.7763568394e-15
C   29.0828	1.85217	1.7763568394e-15
C   30.5028	1.88253	1.7763568394e-15
C   31.1865	3.12743	1.7763568394e-15
C   32.6064	3.1578	1.7763568394e-15
C   33.2901	4.4027	1.7763568394e-15
C   34.7101	4.43306	1.7763568394e-15
C   35.3937	5.67796	1.7763568394e-15
C   36.8137	5.70832	1.7763568394e-15
C   37.4974	6.95323	1.7763568394e-15
C   24.1393	0.516178	1.7763568394e-15
C   24.823	1.76108	1.7763568394e-15
C   26.2429	1.79144	1.7763568394e-15
C   26.9266	3.03634	1.7763568394e-15
C   28.3466	3.06671	1.7763568394e-15
C   29.0302	4.31161	1.7763568394e-15
C   30.4502	4.34197	1.7763568394e-15
C   31.1339	5.58687	1.7763568394e-15
C   32.5538	5.61723	1.7763568394e-15
C   33.2375	6.86214	1.7763568394e-15
C   34.6575	6.8925	1.7763568394e-15
C   35.3412	8.1374	1.7763568394e-15
C   36.7611	8.16776	1.7763568394e-15
C   37.4448	9.41266	1.7763568394e-15
C   38.8648	9.44303	1.7763568394e-15
C   39.5484	10.6879	1.7763568394e-15
C   26.1903	4.25088	1.7763568394e-15
C   26.874	5.49578	1.7763568394e-15
C   28.294	5.52614	1.7763568394e-15
C   28.9776	6.77104	1.7763568394e-15
C   30.3976	6.80141	1.7763568394e-15
C   31.0813	8.04631	1.7763568394e-15
C   32.5012	8.07667	1.7763568394e-15
C   33.1849	9.32157	1.7763568394e-15
C   34.6049	9.35194	1.7763568394e-15
C   35.2886	10.5968	1.7763568394e-15
C   36.7085	10.6272	1.7763568394e-15
C   37.3922	11.8721	1.7763568394e-15
C   38.8122	11.9025	1.7763568394e-15
C   39.4958	13.1474	1.7763568394e-15
C   40.9158	13.1777	1.7763568394e-15
C   41.5995	14.4226	1.7763568394e-15
C   28.2414	7.98558	1.7763568394e-15
C   28.9251	9.23048	1.7763568394e-15
C   30.345	9.26085	1.7763568394e-15
C   31.0287	10.5057	1.7763568394e-15
C   32.4486	10.5361	1.7763568394e-15
C   33.1323	11.781	1.7763568394e-15
C   34.5523	11.8114	1.7763568394e-15
C   35.236	13.0563	1.7763568394e-15
C   36.6559	13.0866	1.7763568394e-15
C   37.3396	14.3315	1.7763568394e-15
C   38.7596	14.3619	1.7763568394e-15
C   39.4433	15.6068	1.7763568394e-15
C   40.8632	15.6372	1.7763568394e-15
C   41.5469	16.8821	1.7763568394e-15
C   42.9668	16.9124	1.7763568394e-15
C   43.6505	18.1573	1.7763568394e-15
C   30.2924	11.7203	1.7763568394e-15
C   30.9761	12.9652	1.7763568394e-15
C   32.3961	12.9955	1.7763568394e-15
C   33.0797	14.2404	1.7763568394e-15
C   34.4997	14.2708	1.7763568394e-15
C   35.1834	15.5157	1.7763568394e-15
C   36.6033	15.5461	1.7763568394e-15
C   37.287	16.791	1.7763568394e-15
C   38.707	16.8213	1.7763568394e-15
C   39.3907	18.0662	1.7763568394e-15
C   40.8106	18.0966	1.7763568394e-15
C   41.4943	19.3415	1.7763568394e-15
C   42.9143	19.3719	1.7763568394e-15
C   43.5979	20.6168	1.7763568394e-15
C   45.0179	20.6471	1.7763568394e-15
C   45.7016	21.892	1.7763568394e-15
C   47.1215	21.9224	1.7763568394e-15
C   47.8052	23.1673	1.7763568394e-15
C   32.3435	15.455	1.7763568394e-15
C   33.0271	16.6999	1.7763568394e-15
C   34.4471	16.7302	1.7763568394e-15
C   35.1308	17.9752	1.7763568394e-15
C   36.5507	18.0055	1.7763568394e-15
C   37.2344	19.2504	1.7763568394e-15
C   38.6544	19.2808	1.7763568394e-15
C   39.3381	20.5257	1.7763568394e-15
C   40.758	20.556	1.7763568394e-15
C   41.4417	21.8009	1.7763568394e-15
C   42.8617	21.8313	1.7763568394e-15
C   43.5453	23.0762	1.7763568394e-15
C   44.9653	23.1066	1.7763568394e-15
C   45.649	24.3515	1.7763568394e-15
C   47.0689	24.3818	1.7763568394e-15
C   33.0271	16.5177	3.3
C   33.7634	17.7322	3.3
C   35.1834	17.7019	3.3
C   35.9197	18.9164	3.3
C   37.3396	18.8861	3.3
C   38.0759	20.1006	3.3
C   39.4958	20.0702	3.3
C   40.2321	21.2848	3.3
C   41.6521	21.2544	3.3
C   42.3883	22.4689	3.3
C   43.8083	22.4386	3.3
C   44.5446	23.6531	3.3
C   45.9645	23.6227	3.3
C   46.7008	24.8373	3.3
C   48.1208	24.8069	3.3
C   30.8183	12.8741	3.3
C   31.5546	14.0886	3.3
C   32.9746	14.0583	3.3
C   33.7108	15.2728	3.3
C   35.1308	15.2424	3.3
C   35.8671	16.457	3.3
C   37.287	16.4266	3.3
C   38.0233	17.6412	3.3
C   39.4433	17.6108	3.3
C   40.1795	18.8253	3.3
C   41.5995	18.795	3.3
C   42.3358	20.0095	3.3
C   43.7557	19.9791	3.3
C   44.492	21.1937	3.3
C   45.9119	21.1633	3.3
C   46.6482	22.3778	3.3
C   28.6095	9.23048	3.3
C   29.3458	10.445	3.3
C   30.7657	10.4147	3.3
C   31.502	11.6292	3.3
C   32.922	11.5988	3.3
C   33.6582	12.8134	3.3
C   35.0782	12.783	3.3
C   35.8145	13.9975	3.3
C   37.2344	13.9672	3.3
C   37.9707	15.1817	3.3
C   39.3907	15.1514	3.3
C   40.1269	16.3659	3.3
C   41.5469	16.3355	3.3
C   42.2832	17.5501	3.3
C   43.7031	17.5197	3.3
C   44.4394	18.7342	3.3
C   26.4007	5.58687	3.3
C   27.137	6.80141	3.3
C   28.5569	6.77104	3.3
C   29.2932	7.98558	3.3
C   30.7131	7.95522	3.3
C   31.4494	9.16976	3.3
C   32.8694	9.13939	3.3
C   33.6057	10.3539	3.3
C   35.0256	10.3236	3.3
C   35.7619	11.5381	3.3
C   37.1818	11.5077	3.3
C   37.9181	12.7223	3.3
C   39.3381	12.6919	3.3
C   40.0743	13.9065	3.3
C   41.4943	13.8761	3.3
C   42.2306	15.0906	3.3
C   24.1919	1.94326	3.3
C   24.9281	3.1578	3.3
C   26.3481	3.12743	3.3
C   27.0844	4.34197	3.3
C   28.5043	4.31161	3.3
C   29.2406	5.52614	3.3
C   30.6606	5.49578	3.3
C   31.3968	6.71032	3.3
C   32.8168	6.67995	3.3
C   33.5531	7.89449	3.3
C   34.973	7.86413	3.3
C   35.7093	9.07867	3.3
C   37.1292	9.0483	3.3
C   37.8655	10.2628	3.3
C   39.2855	10.2325	3.3
C   40.0218	11.447	3.3
C   24.8755	0.698359	3.3
C   26.2955	0.667995	3.3
C   27.0318	1.88253	3.3
C   28.4517	1.85217	3.3
C   29.188	3.06671	3.3
C   30.608	3.03634	3.3
C   31.3442	4.25088	3.3
C   32.7642	4.22052	3.3
C   33.5005	5.43505	3.3
C   34.9204	5.40469	3.3
C   35.6567	6.61923	3.3
C   37.0767	6.58886	3.3
C   37.8129	7.8034	3.3
C   29.1354	0.607269	3.3
C   30.5554	0.576905	3.3
C   31.2916	1.79144	3.3
C   32.7116	1.76108	3.3
C   33.4479	2.97562	3.3
C   34.8678	2.94525	3.3
C   35.6041	4.15979	3.3
C   33.3953	0.516178	3.3
C   37.4448	23.8049	3.3
C   35.236	20.1613	3.3
C   35.9722	21.3759	3.3
C   37.3922	21.3455	3.3
C   38.1285	22.56	3.3
C   39.5484	22.5297	3.3
C   40.2847	23.7442	3.3
C   41.7047	23.7138	3.3
C   43.8609	24.898	3.3
C   43.4928	25.5356	1.7763568394e-15
C   44.9127	25.566	1.7763568394e-15
C   45.5964	26.8109	1.7763568394e-15
C   47.0164	26.8413	1.7763568394e-15
C   47.7	28.0862	1.7763568394e-15
C   49.12	28.1165	1.7763568394e-15
C   49.8037	29.3614	1.7763568394e-15
C   51.2236	29.3918	1.7763568394e-15
C   51.9073	30.6367	1.7763568394e-15
C   39.2329	25.4446	1.7763568394e-15
C   40.6528	25.4749	1.7763568394e-15
C   41.3365	26.7198	1.7763568394e-15
C   42.7565	26.7502	1.7763568394e-15
C   43.4402	27.9951	1.7763568394e-15
C   44.8601	28.0254	1.7763568394e-15
C   45.5438	29.2703	1.7763568394e-15
C   46.9638	29.3007	1.7763568394e-15
C   47.6474	30.5456	1.7763568394e-15
C   49.0674	30.576	1.7763568394e-15
C   49.7511	31.8209	1.7763568394e-15
C   51.171	31.8512	1.7763568394e-15
C   51.8547	33.0961	1.7763568394e-15
C   53.2747	33.1265	1.7763568394e-15
C   53.9584	34.3714	1.7763568394e-15
C   38.4966	26.6591	1.7763568394e-15
C   39.1803	27.904	1.7763568394e-15
C   40.6003	27.9344	1.7763568394e-15
C   41.2839	29.1793	1.7763568394e-15
C   42.7039	29.2096	1.7763568394e-15
C   43.3876	30.4545	1.7763568394e-15
C   44.8075	30.4849	1.7763568394e-15
C   45.4912	31.7298	1.7763568394e-15
C   46.9112	31.7601	1.7763568394e-15
C   47.5949	33.005	1.7763568394e-15
C   49.0148	33.0354	1.7763568394e-15
C   49.6985	34.2803	1.7763568394e-15
C   51.1185	34.3107	1.7763568394e-15
C   51.8021	35.5556	1.7763568394e-15
C   53.2221	35.5859	1.7763568394e-15
C   53.9058	36.8308	1.7763568394e-15
C   55.3257	36.8612	1.7763568394e-15
C   56.0094	38.1061	1.7763568394e-15
C   42.6513	31.6691	1.7763568394e-15
C   43.335	32.914	1.7763568394e-15
C   44.7549	32.9443	1.7763568394e-15
C   45.4386	34.1892	1.7763568394e-15
C   46.8586	34.2196	1.7763568394e-15
C   47.5423	35.4645	1.7763568394e-15
C   48.9622	35.4948	1.7763568394e-15
C   49.6459	36.7397	1.7763568394e-15
C   51.0659	36.7701	1.7763568394e-15
C   51.7495	38.015	1.7763568394e-15
C   53.1695	38.0454	1.7763568394e-15
C   53.8532	39.2903	1.7763568394e-15
C   55.2731	39.3206	1.7763568394e-15
C   55.9568	40.5655	1.7763568394e-15
C   57.3768	40.5959	1.7763568394e-15
C   58.0605	41.8408	1.7763568394e-15
C   44.7024	35.4038	1.7763568394e-15
C   45.386	36.6487	1.7763568394e-15
C   46.806	36.679	1.7763568394e-15
C   47.4897	37.9239	1.7763568394e-15
C   48.9096	37.9543	1.7763568394e-15
C   49.5933	39.1992	1.7763568394e-15
C   51.0133	39.2296	1.7763568394e-15
C   51.697	40.4745	1.7763568394e-15
C   53.1169	40.5048	1.7763568394e-15
C   53.8006	41.7497	1.7763568394e-15
C   55.2206	41.7801	1.7763568394e-15
C   55.9042	43.025	1.7763568394e-15
C   57.3242	43.0553	1.7763568394e-15
C   58.0079	44.3002	1.7763568394e-15
C   59.4278	44.3306	1.7763568394e-15
C   60.1115	45.5755	1.7763568394e-15
C   46.7534	39.1385	1.7763568394e-15
C   47.4371	40.3834	1.7763568394e-15
C   48.857	40.4137	1.7763568394e-15
C   49.5407	41.6586	1.7763568394e-15
C   50.9607	41.689	1.7763568394e-15
C   51.6444	42.9339	1.7763568394e-15
C   53.0643	42.9643	1.7763568394e-15
C   53.748	44.2092	1.7763568394e-15
C   55.168	44.2395	1.7763568394e-15
C   55.8516	45.4844	1.7763568394e-15
C   57.2716	45.5148	1.7763568394e-15
C   57.9553	46.7597	1.7763568394e-15
C   59.3752	46.79	1.7763568394e-15
C   60.0589	48.0349	1.7763568394e-15
C   61.4789	48.0653	1.7763568394e-15
C   62.1626	49.3102	1.7763568394e-15
C   48.8045	42.8732	1.7763568394e-15
C   49.4881	44.1181	1.7763568394e-15
C   50.9081	44.1484	1.7763568394e-15
C   51.5918	45.3933	1.7763568394e-15
C   53.0117	45.4237	1.7763568394e-15
C   53.6954	46.6686	1.7763568394e-15
C   55.1154	46.699	1.7763568394e-15
C   55.7991	47.9439	1.7763568394e-15
C   57.219	47.9742	1.7763568394e-15
C   57.9027	49.2191	1.7763568394e-15
C   59.3227	49.2495	1.7763568394e-15
C   50.8555	46.6079	1.7763568394e-15
C   51.5392	47.8528	1.7763568394e-15
C   52.9591	47.8831	1.7763568394e-15
C   53.6428	49.128	1.7763568394e-15
C   55.0628	49.1584	1.7763568394e-15
C   47.7526	25.6267	1.7763568394e-15
C   49.1726	25.6571	1.7763568394e-15
C   49.8563	26.902	1.7763568394e-15
C   48.857	26.0215	3.3
C   52.9065	49.3102	3.3
C   50.6977	45.6666	3.3
C   51.434	46.8811	3.3
C   52.854	46.8508	3.3
C   53.5902	48.0653	3.3
C   55.0102	48.0349	3.3
C   55.7465	49.2495	3.3
C   57.1664	49.2191	3.3
C   48.4889	42.023	3.3
C   49.2252	43.2375	3.3
C   50.6451	43.2072	3.3
C   51.3814	44.4217	3.3
C   52.8014	44.3913	3.3
C   53.5376	45.6059	3.3
C   54.9576	45.5755	3.3
C   55.6939	46.79	3.3
C   57.1138	46.7597	3.3
C   57.8501	47.9742	3.3
C   59.2701	47.9439	3.3
C   60.0063	49.1584	3.3
C   61.4263	49.128	3.3
C   46.2801	38.3794	3.3
C   47.0164	39.5939	3.3
C   48.4363	39.5635	3.3
C   49.1726	40.7781	3.3
C   50.5925	40.7477	3.3
C   51.3288	41.9623	3.3
C   52.7488	41.9319	3.3
C   53.485	43.1464	3.3
C   54.905	43.1161	3.3
C   55.6413	44.3306	3.3
C   57.0612	44.3002	3.3
C   57.7975	45.5148	3.3
C   59.2175	45.4844	3.3
C   59.9537	46.699	3.3
C   61.3737	46.6686	3.3
C   62.11	47.8831	3.3
C   44.0713	34.7358	3.3
C   44.8075	35.9503	3.3
C   46.2275	35.9199	3.3
C   46.9638	37.1345	3.3
C   48.3837	37.1041	3.3
C   49.12	38.3186	3.3
C   50.54	38.2883	3.3
C   51.2762	39.5028	3.3
C   52.6962	39.4725	3.3
C   53.4325	40.687	3.3
C   54.8524	40.6566	3.3
C   55.5887	41.8712	3.3
C   57.0086	41.8408	3.3
C   57.7449	43.0553	3.3
C   59.1649	43.025	3.3
C   59.9012	44.2395	3.3
C   41.8624	31.0922	3.3
C   42.5987	32.3067	3.3
C   44.0187	32.2763	3.3
C   44.7549	33.4909	3.3
C   46.1749	33.4605	3.3
C   46.9112	34.675	3.3
C   48.3311	34.6447	3.3
C   49.0674	35.8592	3.3
C   50.4874	35.8288	3.3
C   51.2236	37.0434	3.3
C   52.6436	37.013	3.3
C   53.3799	38.2276	3.3
C   54.7998	38.1972	3.3
C   55.5361	39.4117	3.3
C   56.9561	39.3814	3.3
C   57.6923	40.5959	3.3
C   39.6536	27.4485	3.3
C   40.3899	28.6631	3.3
C   41.8098	28.6327	3.3
C   42.5461	29.8473	3.3
C   43.9661	29.8169	3.3
C   44.7024	31.0314	3.3
C   46.1223	31.0011	3.3
C   46.8586	32.2156	3.3
C   48.2785	32.1852	3.3
C   49.0148	33.3998	3.3
C   50.4348	33.3694	3.3
C   51.171	34.5839	3.3
C   52.591	34.5536	3.3
C   53.3273	35.7681	3.3
C   54.7472	35.7378	3.3
C   55.4835	36.9523	3.3
C   38.1811	25.0195	3.3
C   39.601	24.9891	3.3
C   40.3373	26.2036	3.3
C   41.7573	26.1733	3.3
C   42.4935	27.3878	3.3
C   43.9135	27.3574	3.3
C   44.6498	28.572	3.3
C   46.0697	28.5416	3.3
C   46.806	29.7562	3.3
C   48.2259	29.7258	3.3
C   48.9622	30.9403	3.3
C   50.3822	30.91	3.3
C   51.1185	32.1245	3.3
C   52.5384	32.0941	3.3
C   53.2747	33.3087	3.3
C   42.4409	24.9284	3.3
C   44.5972	26.1125	3.3
C   46.0171	26.0822	3.3
C   46.7534	27.2967	3.3
C   48.1734	27.2664	3.3
C   48.9096	28.4809	3.3
C   50.3296	28.4505	3.3
C   51.0659	29.6651	3.3
C   44.0187	0.941266	1.7763568394e-15
C   45.4386	0.97163	1.7763568394e-15
C   46.1223	2.21653	1.7763568394e-15
C   39.7588	0.850176	1.7763568394e-15
C   41.1788	0.880539	1.7763568394e-15
C   41.8624	2.12544	1.7763568394e-15
C   43.2824	2.1558	1.7763568394e-15
C   43.9661	3.4007	1.7763568394e-15
C   45.386	3.43107	1.7763568394e-15
C   46.0697	4.67597	1.7763568394e-15
C   47.4897	4.70633	1.7763568394e-15
C   48.1734	5.95123	1.7763568394e-15
C   35.4989	0.759086	1.7763568394e-15
C   36.9189	0.789449	1.7763568394e-15
C   37.6026	2.03435	1.7763568394e-15
C   39.0225	2.06471	1.7763568394e-15
C   39.7062	3.30961	1.7763568394e-15
C   41.1262	3.33998	1.7763568394e-15
C   41.8098	4.58488	1.7763568394e-15
C   43.2298	4.61524	1.7763568394e-15
C   43.9135	5.86014	1.7763568394e-15
C   45.3334	5.89051	1.7763568394e-15
C   46.0171	7.13541	1.7763568394e-15
C   47.4371	7.16577	1.7763568394e-15
C   48.1208	8.41067	1.7763568394e-15
C   49.5407	8.44103	1.7763568394e-15
C   50.2244	9.68593	1.7763568394e-15
C   52.328	10.9612	1.7763568394e-15
C   36.8663	3.24889	1.7763568394e-15
C   37.55	4.49379	1.7763568394e-15
C   38.9699	4.52415	1.7763568394e-15
C   39.6536	5.76905	1.7763568394e-15
C   41.0736	5.79942	1.7763568394e-15
C   41.7573	7.04432	1.7763568394e-15
C   43.1772	7.07468	1.7763568394e-15
C   43.8609	8.31958	1.7763568394e-15
C   45.2809	8.34994	1.7763568394e-15
C   45.9645	9.59484	1.7763568394e-15
C   47.3845	9.62521	1.7763568394e-15
C   48.0682	10.8701	1.7763568394e-15
C   49.4881	10.9005	1.7763568394e-15
C   50.1718	12.1454	1.7763568394e-15
C   51.5918	12.1757	1.7763568394e-15
C   52.2755	13.4206	1.7763568394e-15
C   53.6954	13.451	1.7763568394e-15
C   54.3791	14.6959	1.7763568394e-15
C   38.9173	6.98359	1.7763568394e-15
C   39.601	8.22849	1.7763568394e-15
C   41.021	8.25885	1.7763568394e-15
C   41.7047	9.50375	1.7763568394e-15
C   43.1246	9.53412	1.7763568394e-15
C   43.8083	10.779	1.7763568394e-15
C   45.2283	10.8094	1.7763568394e-15
C   45.9119	12.0543	1.7763568394e-15
C   47.3319	12.0846	1.7763568394e-15
C   48.0156	13.3295	1.7763568394e-15
C   49.4355	13.3599	1.7763568394e-15
C   50.1192	14.6048	1.7763568394e-15
C   51.5392	14.6352	1.7763568394e-15
C   52.2229	15.8801	1.7763568394e-15
C   53.6428	15.9104	1.7763568394e-15
C   54.3265	17.1553	1.7763568394e-15
C   55.7465	17.1857	1.7763568394e-15
C   56.4301	18.4306	1.7763568394e-15
C   40.9684	10.7183	1.7763568394e-15
C   41.6521	11.9632	1.7763568394e-15
C   43.072	11.9936	1.7763568394e-15
C   43.7557	13.2385	1.7763568394e-15
C   45.1757	13.2688	1.7763568394e-15
C   45.8594	14.5137	1.7763568394e-15
C   47.2793	14.5441	1.7763568394e-15
C   47.963	15.789	1.7763568394e-15
C   49.383	15.8193	1.7763568394e-15
C   50.0666	17.0642	1.7763568394e-15
C   51.4866	17.0946	1.7763568394e-15
C   52.1703	18.3395	1.7763568394e-15
C   53.5902	18.3699	1.7763568394e-15
C   54.2739	19.6148	1.7763568394e-15
C   55.6939	19.6451	1.7763568394e-15
C   56.3776	20.89	1.7763568394e-15
C   57.7975	20.9204	1.7763568394e-15
C   58.4812	22.1653	1.7763568394e-15
C   43.0194	14.453	1.7763568394e-15
C   43.7031	15.6979	1.7763568394e-15
C   45.1231	15.7283	1.7763568394e-15
C   45.8068	16.9732	1.7763568394e-15
C   47.2267	17.0035	1.7763568394e-15
C   47.9104	18.2484	1.7763568394e-15
C   49.3304	18.2788	1.7763568394e-15
C   50.014	19.5237	1.7763568394e-15
C   51.434	19.554	1.7763568394e-15
C   52.1177	20.7989	1.7763568394e-15
C   53.5376	20.8293	1.7763568394e-15
C   54.2213	22.0742	1.7763568394e-15
C   55.6413	22.1046	1.7763568394e-15
C   56.325	23.3495	1.7763568394e-15
C   57.7449	23.3798	1.7763568394e-15
C   58.4286	24.6247	1.7763568394e-15
C   59.8486	24.6551	1.7763568394e-15
C   45.0705	18.1877	1.7763568394e-15
C   45.7542	19.4326	1.7763568394e-15
C   47.1741	19.463	1.7763568394e-15
C   47.8578	20.7079	1.7763568394e-15
C   49.2778	20.7382	1.7763568394e-15
C   49.9615	21.9831	1.7763568394e-15
C   51.3814	22.0135	1.7763568394e-15
C   52.0651	23.2584	1.7763568394e-15
C   53.485	23.2888	1.7763568394e-15
C   54.1687	24.5337	1.7763568394e-15
C   55.5887	24.564	1.7763568394e-15
C   49.2252	23.1977	1.7763568394e-15
C   49.9089	24.4426	1.7763568394e-15
C   51.3288	24.4729	1.7763568394e-15
C   48.0682	22.3475	3.3
C   48.8045	23.562	3.3
C   50.2244	23.5317	3.3
C   50.9607	24.7462	3.3
C   52.3806	24.7158	3.3
C   45.8594	18.7039	3.3
C   46.5956	19.9184	3.3
C   48.0156	19.888	3.3
C   48.7519	21.1026	3.3
C   50.1718	21.0722	3.3
C   50.9081	22.2868	3.3
C   52.328	22.2564	3.3
C   53.0643	23.4709	3.3
C   54.4843	23.4406	3.3
C   55.2206	24.6551	3.3
C   56.6405	24.6247	3.3
C   43.6505	15.0603	3.3
C   44.3868	16.2748	3.3
C   45.8068	16.2444	3.3
C   46.543	17.459	3.3
C   47.963	17.4286	3.3
C   48.6993	18.6431	3.3
C   50.1192	18.6128	3.3
C   50.8555	19.8273	3.3
C   52.2755	19.797	3.3
C   53.0117	21.0115	3.3
C   54.4317	20.9811	3.3
C   55.168	22.1957	3.3
C   56.5879	22.1653	3.3
C   57.3242	23.3798	3.3
C   58.7441	23.3495	3.3
C   59.4804	24.564	3.3
C   41.4417	11.4166	3.3
C   42.178	12.6312	3.3
C   43.5979	12.6008	3.3
C   44.3342	13.8154	3.3
C   45.7542	13.785	3.3
C   46.4904	14.9995	3.3
C   47.9104	14.9692	3.3
C   48.6467	16.1837	3.3
C   50.0666	16.1533	3.3
C   50.8029	17.3679	3.3
C   52.2229	17.3375	3.3
C   52.9591	18.5521	3.3
C   54.3791	18.5217	3.3
C   55.1154	19.7362	3.3
C   56.5353	19.7059	3.3
C   57.2716	20.9204	3.3
C   39.2329	7.77304	3.3
C   39.9692	8.98758	3.3
C   41.3891	8.95721	3.3
C   42.1254	10.1717	3.3
C   43.5453	10.1414	3.3
C   44.2816	11.3559	3.3
C   45.7016	11.3256	3.3
C   46.4379	12.5401	3.3
C   47.8578	12.5097	3.3
C   48.5941	13.7243	3.3
C   50.014	13.6939	3.3
C   50.7503	14.9084	3.3
C   52.1703	14.8781	3.3
C   52.9065	16.0926	3.3
C   54.3265	16.0623	3.3
C   55.0628	17.2768	3.3
C   37.0241	4.12943	3.3
C   37.7603	5.34396	3.3
C   39.1803	5.3136	3.3
C   39.9166	6.52814	3.3
C   41.3365	6.49777	3.3
C   42.0728	7.71231	3.3
C   43.4928	7.68195	3.3
C   44.229	8.89648	3.3
C   45.649	8.86612	3.3
C   46.3853	10.0807	3.3
C   47.8052	10.0503	3.3
C   48.5415	11.2648	3.3
C   49.9615	11.2345	3.3
C   50.6977	12.449	3.3
C   52.1177	12.4186	3.3
C   52.854	13.6332	3.3
C   34.8152	0.485815	3.3
C   35.5515	1.70035	3.3
C   36.9715	1.66999	3.3
C   37.7077	2.88453	3.3
C   39.1277	2.85416	3.3
C   39.864	4.0687	3.3
C   41.2839	4.03834	3.3
C   42.0202	5.25287	3.3
C   43.4402	5.22251	3.3
C   44.1764	6.43705	3.3
C   45.5964	6.40668	3.3
C   46.3327	7.62122	3.3
C   47.7526	7.59086	3.3
C   48.4889	8.80539	3.3
C   49.9089	8.77503	3.3
C   50.6451	9.98957	3.3
C   37.6552	0.425088	3.3
C   39.0751	0.394725	3.3
C   39.8114	1.60926	3.3
C   41.2313	1.5789	3.3
C   41.9676	2.79344	3.3
C   43.3876	2.76307	3.3
C   44.1239	3.97761	3.3
C   45.5438	3.94725	3.3
C   46.2801	5.16178	3.3
C   47.7	5.13142	3.3
C   48.4363	6.34596	3.3
C   41.915	0.333998	3.3
C   43.335	0.303634	3.3
C   44.0713	1.51817	3.3
C   45.4912	1.48781	3.3
C   46.2275	2.70235	3.3
C   53.3273	30.6671	1.7763568394e-15
C   54.011	31.912	1.7763568394e-15
C   55.4309	31.9423	1.7763568394e-15
C   56.1146	33.1872	1.7763568394e-15
C   57.5346	33.2176	1.7763568394e-15
C   58.2182	34.4625	1.7763568394e-15
C   59.6382	34.4929	1.7763568394e-15
C   60.3219	35.7378	1.7763568394e-15
C   61.7418	35.7681	1.7763568394e-15
C   62.4255	37.013	1.7763568394e-15
C   63.8455	37.0434	1.7763568394e-15
C   64.5292	38.2883	1.7763568394e-15
C   65.9491	38.3186	1.7763568394e-15
C   66.6328	39.5635	1.7763568394e-15
C   68.0528	39.5939	1.7763568394e-15
C   68.7364	40.8388	1.7763568394e-15
C   55.3783	34.4018	1.7763568394e-15
C   56.062	35.6467	1.7763568394e-15
C   57.482	35.677	1.7763568394e-15
C   58.1656	36.9219	1.7763568394e-15
C   59.5856	36.9523	1.7763568394e-15
C   60.2693	38.1972	1.7763568394e-15
C   61.6892	38.2276	1.7763568394e-15
C   62.3729	39.4725	1.7763568394e-15
C   63.7929	39.5028	1.7763568394e-15
C   64.4766	40.7477	1.7763568394e-15
C   65.8965	40.7781	1.7763568394e-15
C   66.5802	42.023	1.7763568394e-15
C   68.0002	42.0533	1.7763568394e-15
C   68.6838	43.2983	1.7763568394e-15
C   70.1038	43.3286	1.7763568394e-15
C   70.7875	44.5735	1.7763568394e-15
C   57.4294	38.1365	1.7763568394e-15
C   58.1131	39.3814	1.7763568394e-15
C   59.533	39.4117	1.7763568394e-15
C   60.2167	40.6566	1.7763568394e-15
C   61.6367	40.687	1.7763568394e-15
C   62.3203	41.9319	1.7763568394e-15
C   63.7403	41.9623	1.7763568394e-15
C   64.424	43.2072	1.7763568394e-15
C   65.8439	43.2375	1.7763568394e-15
C   66.5276	44.4824	1.7763568394e-15
C   67.9476	44.5128	1.7763568394e-15
C   68.6313	45.7577	1.7763568394e-15
C   70.0512	45.7881	1.7763568394e-15
C   70.7349	47.033	1.7763568394e-15
C   72.1549	47.0633	1.7763568394e-15
C   72.8385	48.3082	1.7763568394e-15
C   59.4804	41.8712	1.7763568394e-15
C   60.1641	43.1161	1.7763568394e-15
C   61.5841	43.1464	1.7763568394e-15
C   62.2677	44.3913	1.7763568394e-15
C   63.6877	44.4217	1.7763568394e-15
C   64.3714	45.6666	1.7763568394e-15
C   65.7913	45.697	1.7763568394e-15
C   66.475	46.9419	1.7763568394e-15
C   67.895	46.9722	1.7763568394e-15
C   68.5787	48.2171	1.7763568394e-15
C   69.9986	48.2475	1.7763568394e-15
C   70.6823	49.4924	1.7763568394e-15
C   72.1023	49.5228	1.7763568394e-15
C   61.5315	45.6059	1.7763568394e-15
C   62.2152	46.8508	1.7763568394e-15
C   63.6351	46.8811	1.7763568394e-15
C   64.3188	48.126	1.7763568394e-15
C   65.7388	48.1564	1.7763568394e-15
C   66.4224	49.4013	1.7763568394e-15
C   67.8424	49.4317	1.7763568394e-15
C   63.5825	49.3406	1.7763568394e-15
C   60.5322	25.9	1.7763568394e-15
C   56.2724	25.8089	1.7763568394e-15
C   57.6923	25.8393	1.7763568394e-15
C   58.376	27.0842	1.7763568394e-15
C   59.796	27.1145	1.7763568394e-15
C   60.4797	28.3594	1.7763568394e-15
C   61.8996	28.3898	1.7763568394e-15
C   62.5833	29.6347	1.7763568394e-15
C   52.0125	25.7178	1.7763568394e-15
C   53.4325	25.7482	1.7763568394e-15
C   54.1161	26.9931	1.7763568394e-15
C   55.5361	27.0235	1.7763568394e-15
C   56.2198	28.2684	1.7763568394e-15
C   57.6397	28.2987	1.7763568394e-15
C   58.3234	29.5436	1.7763568394e-15
C   59.7434	29.574	1.7763568394e-15
C   60.4271	30.8189	1.7763568394e-15
C   61.847	30.8492	1.7763568394e-15
C   62.5307	32.0941	1.7763568394e-15
C   63.9507	32.1245	1.7763568394e-15
C   64.6343	33.3694	1.7763568394e-15
C   51.2762	26.9324	1.7763568394e-15
C   51.9599	28.1773	1.7763568394e-15
C   53.3799	28.2076	1.7763568394e-15
C   54.0636	29.4525	1.7763568394e-15
C   55.4835	29.4829	1.7763568394e-15
C   56.1672	30.7278	1.7763568394e-15
C   57.5871	30.7582	1.7763568394e-15
C   58.2708	32.0031	1.7763568394e-15
C   59.6908	32.0334	1.7763568394e-15
C   60.3745	33.2783	1.7763568394e-15
C   61.7944	33.3087	1.7763568394e-15
C   62.4781	34.5536	1.7763568394e-15
C   63.8981	34.5839	1.7763568394e-15
C   64.5818	35.8288	1.7763568394e-15
C   66.0017	35.8592	1.7763568394e-15
C   66.6854	37.1041	1.7763568394e-15
C   50.277	25.9911	3.3
C   51.0133	27.2056	3.3
C   52.4332	27.1753	3.3
C   53.1695	28.3898	3.3
C   54.5895	28.3594	3.3
C   55.3257	29.574	3.3
C   56.7457	29.5436	3.3
C   57.482	30.7582	3.3
C   58.9019	30.7278	3.3
C   59.6382	31.9423	3.3
C   61.0582	31.912	3.3
C   61.7944	33.1265	3.3
C   63.2144	33.0961	3.3
C   63.9507	34.3107	3.3
C   65.3706	34.2803	3.3
C   66.1069	35.4948	3.3
C   53.1169	25.9304	3.3
C   54.5369	25.9	3.3
C   55.2731	27.1145	3.3
C   56.6931	27.0842	3.3
C   57.4294	28.2987	3.3
C   58.8493	28.2684	3.3
C   59.5856	29.4829	3.3
C   61.0056	29.4525	3.3
C   61.7418	30.6671	3.3
C   63.1618	30.6367	3.3
C   63.8981	31.8512	3.3
C   57.3768	25.8393	3.3
C   58.7967	25.8089	3.3
C   59.533	27.0235	3.3
C   60.953	26.9931	3.3
C   61.6892	28.2076	3.3
C   63.5299	47.8528	3.3
C   64.2662	49.0673	3.3
C   65.6862	49.0369	3.3
C   61.3211	44.2092	3.3
C   62.0574	45.4237	3.3
C   63.4773	45.3933	3.3
C   64.2136	46.6079	3.3
C   65.6336	46.5775	3.3
C   66.3698	47.792	3.3
C   67.7898	47.7617	3.3
C   68.5261	48.9762	3.3
C   69.946	48.9458	3.3
C   59.1123	40.5655	3.3
C   59.8486	41.7801	3.3
C   61.2685	41.7497	3.3
C   62.0048	42.9643	3.3
C   63.4247	42.9339	3.3
C   64.161	44.1484	3.3
C   65.581	44.1181	3.3
C   66.3173	45.3326	3.3
C   67.7372	45.3022	3.3
C   68.4735	46.5168	3.3
C   69.8934	46.4864	3.3
C   70.6297	47.7009	3.3
C   72.0497	47.6706	3.3
C   72.7859	48.8851	3.3
C   74.2059	48.8548	3.3
C   56.9035	36.9219	3.3
C   57.6397	38.1365	3.3
C   59.0597	38.1061	3.3
C   59.796	39.3206	3.3
C   61.2159	39.2903	3.3
C   61.9522	40.5048	3.3
C   63.3722	40.4745	3.3
C   64.1084	41.689	3.3
C   65.5284	41.6586	3.3
C   66.2647	42.8732	3.3
C   67.6846	42.8428	3.3
C   68.4209	44.0573	3.3
C   69.8409	44.027	3.3
C   70.5771	45.2415	3.3
C   71.9971	45.2111	3.3
C   72.7334	46.4257	3.3
C   54.6946	33.2783	3.3
C   55.4309	34.4929	3.3
C   56.8509	34.4625	3.3
C   57.5871	35.677	3.3
C   59.0071	35.6467	3.3
C   59.7434	36.8612	3.3
C   61.1633	36.8308	3.3
C   61.8996	38.0454	3.3
C   63.3196	38.015	3.3
C   64.0558	39.2296	3.3
C   65.4758	39.1992	3.3
C   66.2121	40.4137	3.3
C   67.632	40.3834	3.3
C   68.3683	41.5979	3.3
C   69.7883	41.5675	3.3
C   70.5245	42.7821	3.3
C   52.4858	29.6347	3.3
C   53.2221	30.8492	3.3
C   54.6421	30.8189	3.3
C   55.3783	32.0334	3.3
C   56.7983	32.0031	3.3
C   57.5346	33.2176	3.3
C   58.9545	33.1872	3.3
C   59.6908	34.4018	3.3
C   61.1107	34.3714	3.3
C   61.847	35.5859	3.3
C   63.267	35.5556	3.3
C   64.0032	36.7701	3.3
C   65.4232	36.7397	3.3
C   66.1595	37.9543	3.3
C   67.5794	37.9239	3.3
C   68.3157	39.1385	3.3
C   56.7983	1.21454	1.7763568394e-15
C   58.2182	1.2449	1.7763568394e-15
C   58.9019	2.4898	1.7763568394e-15
C   52.5384	1.12345	1.7763568394e-15
C   53.9584	1.15381	1.7763568394e-15
C   54.6421	2.39871	1.7763568394e-15
C   56.062	2.42907	1.7763568394e-15
C   56.7457	3.67397	1.7763568394e-15
C   58.1656	3.70434	1.7763568394e-15
C   58.8493	4.94924	1.7763568394e-15
C   60.2693	4.9796	1.7763568394e-15
C   60.953	6.2245	1.7763568394e-15
C   48.2785	1.03236	1.7763568394e-15
C   49.6985	1.06272	1.7763568394e-15
C   50.3822	2.30762	1.7763568394e-15
C   51.8021	2.33798	1.7763568394e-15
C   52.4858	3.58288	1.7763568394e-15
C   53.9058	3.61325	1.7763568394e-15
C   54.5895	4.85815	1.7763568394e-15
C   56.0094	4.88851	1.7763568394e-15
C   56.6931	6.13341	1.7763568394e-15
C   58.1131	6.16378	1.7763568394e-15
C   58.7967	7.40868	1.7763568394e-15
C   60.2167	7.43904	1.7763568394e-15
C   60.9004	8.68394	1.7763568394e-15
C   62.3203	8.7143	1.7763568394e-15
C   63.004	9.9592	1.7763568394e-15
C   47.5423	2.24689	1.7763568394e-15
C   48.2259	3.49179	1.7763568394e-15
C   49.6459	3.52216	1.7763568394e-15
C   50.3296	4.76706	1.7763568394e-15
C   51.7495	4.79742	1.7763568394e-15
C   52.4332	6.04232	1.7763568394e-15
C   53.8532	6.07269	1.7763568394e-15
C   54.5369	7.31759	1.7763568394e-15
C   55.9568	7.34795	1.7763568394e-15
C   56.6405	8.59285	1.7763568394e-15
C   58.0605	8.62321	1.7763568394e-15
C   58.7441	9.86811	1.7763568394e-15
C   60.1641	9.89848	1.7763568394e-15
C   60.8478	11.1434	1.7763568394e-15
C   62.2677	11.1737	1.7763568394e-15
C   62.9514	12.4186	1.7763568394e-15
C   64.3714	12.449	1.7763568394e-15
C   65.0551	13.6939	1.7763568394e-15
C   49.5933	5.9816	1.7763568394e-15
C   50.277	7.2265	1.7763568394e-15
C   51.697	7.25686	1.7763568394e-15
C   52.3806	8.50176	1.7763568394e-15
C   53.8006	8.53212	1.7763568394e-15
C   54.4843	9.77702	1.7763568394e-15
C   55.9042	9.80739	1.7763568394e-15
C   56.5879	11.0523	1.7763568394e-15
C   58.0079	11.0827	1.7763568394e-15
C   58.6916	12.3276	1.7763568394e-15
C   60.1115	12.3579	1.7763568394e-15
C   60.7952	13.6028	1.7763568394e-15
C   62.2152	13.6332	1.7763568394e-15
C   62.8988	14.8781	1.7763568394e-15
C   64.3188	14.9084	1.7763568394e-15
C   65.0025	16.1533	1.7763568394e-15
C   66.4224	16.1837	1.7763568394e-15
C   67.1061	17.4286	1.7763568394e-15
C   51.6444	9.7163	1.7763568394e-15
C   53.748	10.9916	1.7763568394e-15
C   54.4317	12.2365	1.7763568394e-15
C   55.8516	12.2668	1.7763568394e-15
C   56.5353	13.5117	1.7763568394e-15
C   57.9553	13.5421	1.7763568394e-15
C   58.639	14.787	1.7763568394e-15
C   60.0589	14.8174	1.7763568394e-15
C   60.7426	16.0623	1.7763568394e-15
C   62.1626	16.0926	1.7763568394e-15
C   62.8462	17.3375	1.7763568394e-15
C   64.2662	17.3679	1.7763568394e-15
C   64.9499	18.6128	1.7763568394e-15
C   66.3698	18.6431	1.7763568394e-15
C   67.0535	19.888	1.7763568394e-15
C   68.4735	19.9184	1.7763568394e-15
C   69.1572	21.1633	1.7763568394e-15
C   55.7991	14.7263	1.7763568394e-15
C   56.4827	15.9712	1.7763568394e-15
C   57.9027	16.0015	1.7763568394e-15
C   58.5864	17.2464	1.7763568394e-15
C   60.0063	17.2768	1.7763568394e-15
C   60.69	18.5217	1.7763568394e-15
C   62.11	18.5521	1.7763568394e-15
C   62.7937	19.797	1.7763568394e-15
C   64.2136	19.8273	1.7763568394e-15
C   64.8973	21.0722	1.7763568394e-15
C   66.3173	21.1026	1.7763568394e-15
C   67.0009	22.3475	1.7763568394e-15
C   68.4209	22.3778	1.7763568394e-15
C   69.1046	23.6227	1.7763568394e-15
C   70.5245	23.6531	1.7763568394e-15
C   71.2082	24.898	1.7763568394e-15
C   57.8501	18.461	1.7763568394e-15
C   58.5338	19.7059	1.7763568394e-15
C   59.9537	19.7362	1.7763568394e-15
C   60.6374	20.9811	1.7763568394e-15
C   62.0574	21.0115	1.7763568394e-15
C   62.7411	22.2564	1.7763568394e-15
C   64.161	22.2868	1.7763568394e-15
C   64.8447	23.5317	1.7763568394e-15
C   66.2647	23.562	1.7763568394e-15
C   66.9483	24.8069	1.7763568394e-15
C   68.3683	24.8373	1.7763568394e-15
C   59.9012	22.1957	1.7763568394e-15
C   60.5848	23.4406	1.7763568394e-15
C   62.0048	23.4709	1.7763568394e-15
C   62.6885	24.7158	1.7763568394e-15
C   64.1084	24.7462	1.7763568394e-15
C   60.9004	24.5337	3.3
C   58.6916	20.89	3.3
C   59.4278	22.1046	3.3
C   60.8478	22.0742	3.3
C   61.5841	23.2888	3.3
C   63.004	23.2584	3.3
C   63.7403	24.4729	3.3
C   65.1603	24.4426	3.3
C   56.4827	17.2464	3.3
C   57.219	18.461	3.3
C   58.639	18.4306	3.3
C   59.3752	19.6451	3.3
C   60.7952	19.6148	3.3
C   61.5315	20.8293	3.3
C   62.9514	20.7989	3.3
C   63.6877	22.0135	3.3
C   65.1077	21.9831	3.3
C   65.8439	23.1977	3.3
C   67.2639	23.1673	3.3
C   68.0002	24.3818	3.3
C   69.4201	24.3515	3.3
C   54.2739	13.6028	3.3
C   55.0102	14.8174	3.3
C   56.4301	14.787	3.3
C   57.1664	16.0015	3.3
C   58.5864	15.9712	3.3
C   59.3227	17.1857	3.3
C   60.7426	17.1553	3.3
C   61.4789	18.3699	3.3
C   62.8988	18.3395	3.3
C   63.6351	19.554	3.3
C   65.0551	19.5237	3.3
C   65.7913	20.7382	3.3
C   67.2113	20.7079	3.3
C   67.9476	21.9224	3.3
C   69.3675	21.892	3.3
C   70.1038	23.1066	3.3
C   52.0651	9.9592	3.3
C   52.8014	11.1737	3.3
C   54.2213	11.1434	3.3
C   54.9576	12.3579	3.3
C   56.3776	12.3276	3.3
C   57.1138	13.5421	3.3
C   58.5338	13.5117	3.3
C   59.2701	14.7263	3.3
C   60.69	14.6959	3.3
C   61.4263	15.9104	3.3
C   62.8462	15.8801	3.3
C   63.5825	17.0946	3.3
C   65.0025	17.0642	3.3
C   65.7388	18.2788	3.3
C   67.1587	18.2484	3.3
C   67.895	19.463	3.3
C   49.8563	6.31559	3.3
C   50.5925	7.53013	3.3
C   52.0125	7.49977	3.3
C   52.7488	8.7143	3.3
C   54.1687	8.68394	3.3
C   54.905	9.89848	3.3
C   56.325	9.86811	3.3
C   57.0612	11.0827	3.3
C   58.4812	11.0523	3.3
C   59.2175	12.2668	3.3
C   60.6374	12.2365	3.3
C   61.3737	13.451	3.3
C   62.7937	13.4206	3.3
C   63.5299	14.6352	3.3
C   64.9499	14.6048	3.3
C   65.6862	15.8193	3.3
C   47.6474	2.67198	3.3
C   48.3837	3.88652	3.3
C   49.8037	3.85616	3.3
C   50.54	5.07069	3.3
C   51.9599	5.04033	3.3
C   52.6962	6.25487	3.3
C   54.1161	6.2245	3.3
C   54.8524	7.43904	3.3
C   56.2724	7.40868	3.3
C   57.0086	8.62321	3.3
C   58.4286	8.59285	3.3
C   59.1649	9.80739	3.3
C   60.5848	9.77702	3.3
C   61.3211	10.9916	3.3
C   62.7411	10.9612	3.3
C   63.4773	12.1757	3.3
C   46.1749	0.242907	3.3
C   47.5949	0.212544	3.3
C   48.3311	1.42708	3.3
C   49.7511	1.39672	3.3
C   50.4874	2.61125	3.3
C   51.9073	2.58089	3.3
C   52.6436	3.79543	3.3
C   54.0636	3.76507	3.3
C   54.7998	4.9796	3.3
C   56.2198	4.94924	3.3
C   56.9561	6.16378	3.3
C   58.376	6.13341	3.3
C   59.1123	7.34795	3.3
C   60.5322	7.31759	3.3
C   61.2685	8.53212	3.3
C   50.4348	0.151817	3.3
C   51.8547	0.121454	3.3
C   52.591	1.33599	3.3
C   54.011	1.30563	3.3
C   54.7472	2.52016	3.3
C   56.1672	2.4898	3.3
C   56.9035	3.70434	3.3
C   58.3234	3.67397	3.3
C   59.0597	4.88851	3.3
C   54.6946	0.0607269	3.3
C   56.1146	0.0303635	3.3
C   56.8509	1.2449	3.3
C   70.1564	40.8692	1.7763568394e-15
C   70.8401	42.1141	1.7763568394e-15
C   72.26	42.1444	1.7763568394e-15
C   72.9437	43.3893	1.7763568394e-15
C   74.3637	43.4197	1.7763568394e-15
C   75.0474	44.6646	1.7763568394e-15
C   76.4673	44.695	1.7763568394e-15
C   77.151	45.9399	1.7763568394e-15
C   78.571	45.9702	1.7763568394e-15
C   79.2546	47.2151	1.7763568394e-15
C   80.6746	47.2455	1.7763568394e-15
C   81.3583	48.4904	1.7763568394e-15
C   82.7782	48.5208	1.7763568394e-15
C   83.4619	49.7657	1.7763568394e-15
C   84.8819	49.796	1.7763568394e-15
C   72.2074	44.6039	1.7763568394e-15
C   72.8911	45.8488	1.7763568394e-15
C   74.3111	45.8791	1.7763568394e-15
C   74.9948	47.124	1.7763568394e-15
C   76.4147	47.1544	1.7763568394e-15
C   77.0984	48.3993	1.7763568394e-15
C   78.5184	48.4297	1.7763568394e-15
C   79.202	49.6746	1.7763568394e-15
C   80.622	49.7049	1.7763568394e-15
C   74.2585	48.3386	1.7763568394e-15
C   74.9422	49.5835	1.7763568394e-15
C   76.3621	49.6138	1.7763568394e-15
C   69.052	26.0822	1.7763568394e-15
C   70.4719	26.1125	1.7763568394e-15
C   71.1556	27.3574	1.7763568394e-15
C   72.5756	27.3878	1.7763568394e-15
C   73.2593	28.6327	1.7763568394e-15
C   64.7921	25.9911	1.7763568394e-15
C   66.2121	26.0215	1.7763568394e-15
C   66.8958	27.2664	1.7763568394e-15
C   68.3157	27.2967	1.7763568394e-15
C   68.9994	28.5416	1.7763568394e-15
C   70.4194	28.572	1.7763568394e-15
C   71.103	29.8169	1.7763568394e-15
C   72.523	29.8473	1.7763568394e-15
C   73.2067	31.0922	1.7763568394e-15
C   74.6266	31.1225	1.7763568394e-15
C   75.3103	32.3674	1.7763568394e-15
C   61.9522	25.9304	1.7763568394e-15
C   62.6359	27.1753	1.7763568394e-15
C   64.0558	27.2056	1.7763568394e-15
C   64.7395	28.4505	1.7763568394e-15
C   66.1595	28.4809	1.7763568394e-15
C   66.8432	29.7258	1.7763568394e-15
C   68.2631	29.7562	1.7763568394e-15
C   68.9468	31.0011	1.7763568394e-15
C   70.3668	31.0314	1.7763568394e-15
C   71.0504	32.2763	1.7763568394e-15
C   72.4704	32.3067	1.7763568394e-15
C   73.1541	33.5516	1.7763568394e-15
C   74.574	33.582	1.7763568394e-15
C   75.2577	34.8269	1.7763568394e-15
C   76.6777	34.8572	1.7763568394e-15
C   77.3614	36.1021	1.7763568394e-15
C   64.0032	29.6651	1.7763568394e-15
C   64.6869	30.91	1.7763568394e-15
C   66.1069	30.9403	1.7763568394e-15
C   66.7906	32.1852	1.7763568394e-15
C   68.2105	32.2156	1.7763568394e-15
C   68.8942	33.4605	1.7763568394e-15
C   70.3142	33.4909	1.7763568394e-15
C   70.9979	34.7358	1.7763568394e-15
C   72.4178	34.7661	1.7763568394e-15
C   73.1015	36.011	1.7763568394e-15
C   74.5215	36.0414	1.7763568394e-15
C   75.2051	37.2863	1.7763568394e-15
C   76.6251	37.3167	1.7763568394e-15
C   77.3088	38.5616	1.7763568394e-15
C   78.7287	38.5919	1.7763568394e-15
C   79.4124	39.8368	1.7763568394e-15
C   66.0543	33.3998	1.7763568394e-15
C   66.738	34.6447	1.7763568394e-15
C   68.1579	34.675	1.7763568394e-15
C   68.8416	35.9199	1.7763568394e-15
C   70.2616	35.9503	1.7763568394e-15
C   70.9453	37.1952	1.7763568394e-15
C   72.3652	37.2256	1.7763568394e-15
C   73.0489	38.4705	1.7763568394e-15
C   74.4689	38.5008	1.7763568394e-15
C   75.1525	39.7457	1.7763568394e-15
C   76.5725	39.7761	1.7763568394e-15
C   77.2562	41.021	1.7763568394e-15
C   78.6761	41.0514	1.7763568394e-15
C   79.3598	42.2963	1.7763568394e-15
C   80.7798	42.3266	1.7763568394e-15
C   81.4635	43.5715	1.7763568394e-15
C   68.1053	37.1345	1.7763568394e-15
C   68.789	38.3794	1.7763568394e-15
C   70.209	38.4097	1.7763568394e-15
C   70.8927	39.6546	1.7763568394e-15
C   72.3126	39.685	1.7763568394e-15
C   72.9963	40.9299	1.7763568394e-15
C   74.4163	40.9603	1.7763568394e-15
C   75.1	42.2052	1.7763568394e-15
C   76.5199	42.2355	1.7763568394e-15
C   77.2036	43.4804	1.7763568394e-15
C   78.6235	43.5108	1.7763568394e-15
C   79.3072	44.7557	1.7763568394e-15
C   80.7272	44.7861	1.7763568394e-15
C   81.4109	46.031	1.7763568394e-15
C   82.8308	46.0613	1.7763568394e-15
C   83.5145	47.3062	1.7763568394e-15
C   67.5268	35.4645	3.3
C   68.2631	36.679	3.3
C   69.6831	36.6487	3.3
C   70.4194	37.8632	3.3
C   71.8393	37.8328	3.3
C   72.5756	39.0474	3.3
C   73.9955	39.017	3.3
C   74.7318	40.2315	3.3
C   76.1518	40.2012	3.3
C   76.888	41.4157	3.3
C   78.308	41.3854	3.3
C   79.0443	42.5999	3.3
C   80.4642	42.5695	3.3
C   81.2005	43.7841	3.3
C   82.6205	43.7537	3.3
C   83.3567	44.9682	3.3
C   65.318	31.8209	3.3
C   66.0543	33.0354	3.3
C   67.4743	33.005	3.3
C   68.2105	34.2196	3.3
C   69.6305	34.1892	3.3
C   70.3668	35.4038	3.3
C   71.7867	35.3734	3.3
C   72.523	36.5879	3.3
C   73.9429	36.5576	3.3
C   74.6792	37.7721	3.3
C   76.0992	37.7417	3.3
C   76.8355	38.9563	3.3
C   78.2554	38.9259	3.3
C   78.9917	40.1405	3.3
C   80.4116	40.1101	3.3
C   81.1479	41.3246	3.3
C   63.1092	28.1773	3.3
C   63.8455	29.3918	3.3
C   65.2654	29.3614	3.3
C   66.0017	30.576	3.3
C   67.4217	30.5456	3.3
C   68.1579	31.7601	3.3
C   69.5779	31.7298	3.3
C   70.3142	32.9443	3.3
C   71.7341	32.914	3.3
C   72.4704	34.1285	3.3
C   73.8904	34.0981	3.3
C   74.6266	35.3127	3.3
C   76.0466	35.2823	3.3
C   76.7829	36.4968	3.3
C   78.2028	36.4665	3.3
C   78.9391	37.681	3.3
C   61.6367	25.7482	3.3
C   63.0566	25.7178	3.3
C   63.7929	26.9324	3.3
C   65.2128	26.902	3.3
C   65.9491	28.1165	3.3
C   67.3691	28.0862	3.3
C   68.1053	29.3007	3.3
C   69.5253	29.2703	3.3
C   70.2616	30.4849	3.3
C   71.6815	30.4545	3.3
C   72.4178	31.6691	3.3
C   73.8378	31.6387	3.3
C   74.574	32.8532	3.3
C   75.994	32.8229	3.3
C   76.7303	34.0374	3.3
C   65.8965	25.6571	3.3
C   67.3165	25.6267	3.3
C   68.0528	26.8413	3.3
C   69.4727	26.8109	3.3
C   70.209	28.0254	3.3
C   71.6289	27.9951	3.3
C   72.3652	29.2096	3.3
C   73.7852	29.1793	3.3
C   74.5215	30.3938	3.3
C   70.1564	25.566	3.3
C   71.5764	25.5356	3.3
C   72.3126	26.7502	3.3
C   74.1533	46.3953	3.3
C   74.8896	47.6099	3.3
C   76.3095	47.5795	3.3
C   77.0458	48.794	3.3
C   78.4658	48.7637	3.3
C   71.9445	42.7517	3.3
C   72.6808	43.9662	3.3
C   74.1007	43.9359	3.3
C   74.837	45.1504	3.3
C   76.257	45.1201	3.3
C   76.9932	46.3346	3.3
C   78.4132	46.3042	3.3
C   79.1495	47.5188	3.3
C   80.5694	47.4884	3.3
C   81.3057	48.7029	3.3
C   82.7256	48.6726	3.3
C   69.7357	39.1081	3.3
C   70.4719	40.3226	3.3
C   71.8919	40.2923	3.3
C   72.6282	41.5068	3.3
C   74.0481	41.4764	3.3
C   74.7844	42.691	3.3
C   76.2044	42.6606	3.3
C   76.9406	43.8752	3.3
C   78.3606	43.8448	3.3
C   79.0969	45.0593	3.3
C   80.5168	45.029	3.3
C   81.2531	46.2435	3.3
C   82.6731	46.2131	3.3
C   83.4093	47.4277	3.3
C   84.8293	47.3973	3.3
C   85.5656	48.6119	3.3
